 vasp.6.2.1 16May21 (build May 12 2022 08:28:04) complex
 executed on             LinuxPGI date 2022.07.10  08:33:54

 INCAR:
   SYSTEM = NiAl
   ISTART = 0
   EDIFF = 5E-6
   NELMIN = 6
   ISIF = 0
   NSW = 150
   IBRION = 2
   POTIM = 0.2
   IVDW = 12
   LWAVE = .FALSE.
   LCHARG = .FALSE.
   LREAL = Auto
   NCORE = 1
   LPLANE = .TRUE.
   ENCUT = 360.00 eV
   ISMEAR = 0
   SIGMA = 0.05

 POTCAR:    PAW Al_GW 19Mar2012
 POTCAR:    PAW O_GW 19Mar2012
 POTCAR:    PAW Al_GW 19Mar2012
   VRHFIN =Al: s2p1

   TITEL  = PAW Al_GW 19Mar2012
   POMASS =   26.982; ZVAL   =    3.000    mass and valenz
   ENMAX  =  240.300; ENMIN  =  180.225 eV

 POTCAR:    PAW O_GW 19Mar2012
   VRHFIN =O: s2p4

   TITEL  = PAW O_GW 19Mar2012
   POMASS =   16.000; ZVAL   =    6.000    mass and valenz
   ENMAX  =  434.431; ENMIN  =  325.824 eV

 Optimization of the real space projectors (new method)

 maximal supplied QI-value         = 18.90
 optimisation between [QCUT,QGAM] = [  9.64, 19.28] = [ 26.01,104.04] Ry
 Optimized for a Real-space Cutoff    1.46 Angstroem

   l    n(q)    QCUT    max X(q) W(low)/X(q) W(high)/X(q)  e(spline)
   0      8     9.638    11.519    0.10E-03    0.23E-03    0.86E-07
   0      8     9.638     5.834    0.72E-04    0.17E-03    0.68E-07
   1      8     9.638    10.132    0.33E-03    0.11E-03    0.32E-06
   1      8     9.638     3.004    0.25E-03    0.10E-03    0.24E-06
   2      7     9.638     3.169    0.30E-03    0.50E-03    0.35E-06
   2      7     9.638     1.607    0.15E-03    0.13E-03    0.12E-06
 Optimization of the real space projectors (new method)

 maximal supplied QI-value         = 23.62
 optimisation between [QCUT,QGAM] = [  9.68, 19.37] = [ 26.27,105.06] Ry
 Optimized for a Real-space Cutoff    2.14 Angstroem

   l    n(q)    QCUT    max X(q) W(low)/X(q) W(high)/X(q)  e(spline)
   0     13     9.685   116.464    0.15E-03    0.15E-03    0.47E-05
   0     13     9.685   116.329    0.15E-03    0.15E-03    0.46E-05
   0     13     9.685     0.942    0.20E-04    0.50E-04    0.17E-05
   1     12     9.685    29.046    0.36E-03    0.11E-02    0.25E-04
   1     12     9.685    24.247    0.38E-03    0.11E-02    0.26E-04
   1     12     9.685     2.381    0.13E-03    0.38E-03    0.78E-05
   2     12     9.685     2.237    0.60E-05    0.28E-04    0.14E-05
   2     12     9.685     1.850    0.17E-04    0.70E-04    0.25E-05
  PAW Al_GW 19Mar2012                   :
  PAW O_GW 19Mar2012                    :

 POSCAR: Al  O
  positions in cartesian coordinates
 exchange correlation table for  LEXCH =        8
   RHO(1)=    0.500       N(1)  =     2000
   RHO(2)=  100.500       N(2)  =     4000

 VTST: version 4.1, (05/19/21)

 CHAIN: initializing optimizer

 OPT: Using VASP Conjugate-Gradient optimizer
 CHAIN: Read ICHAIN             0

 POSCAR: Al  O
  positions in cartesian coordinates

 ion  position               nearest neighbor table
   1  0.000  0.000  0.148- 218 1.87 114 1.87 257 1.87 256 1.99 111 1.99 109 1.99
   2  0.111  0.222  0.019- 221 1.87 128 1.87 114 1.87 123 1.99 124 1.99 121 1.99
   3  0.111  0.222  0.315- 127 1.87 111 1.87 112 1.87 119 1.99 116 1.99 120 1.99
   4  0.222  0.111  0.185- 165 1.87 109 1.87 112 1.87 113 1.99 110 1.99 114 1.99
   5  0.222  0.111  0.481- 155 1.87 174 1.87 116 1.87 117 1.99 118 1.99 115 1.99
   6  0.000  0.000  0.352- 156 1.87 116 1.87 263 1.87 256 1.99 111 1.99 109 1.99
   7  0.000  0.000  0.648- 223 1.87 261 1.87 118 1.87 125 1.99 158 1.99 234 1.99
   8  0.111  0.222  0.519- 136 1.87 223 1.87 117 1.87 116 1.99 119 1.99 120 1.99
   9  0.111  0.222  0.815- 122 1.87 144 1.87 125 1.87 123 1.99 124 1.99 121 1.99
  10  0.222  0.111  0.685- 126 1.87 176 1.87 125 1.87 118 1.99 117 1.99 115 1.99
  11  0.222  0.111  0.981- 178 1.87 159 1.87 121 1.87 113 1.99 110 1.99 114 1.99
  12  0.000  0.000  0.852- 159 1.87 265 1.87 124 1.87 125 1.99 158 1.99 234 1.99
  13  0.000  0.333  0.148- 236 1.87 132 1.87 221 1.87 129 1.99 220 1.99 127 1.99
  14  0.111  0.556  0.019- 239 1.87 146 1.87 132 1.87 142 1.99 141 1.99 139 1.99
  15  0.111  0.556  0.315- 145 1.87 129 1.87 130 1.87 134 1.99 137 1.99 138 1.99
  16  0.222  0.444  0.185- 183 1.87 127 1.87 130 1.87 131 1.99 128 1.99 132 1.99
  17  0.222  0.444  0.481- 119 1.87 192 1.87 134 1.87 135 1.99 136 1.99 133 1.99
  18  0.000  0.333  0.352- 120 1.87 134 1.87 227 1.87 129 1.99 220 1.99 127 1.99
  19  0.000  0.333  0.648- 241 1.87 225 1.87 136 1.87 143 1.99 122 1.99 252 1.99
  20  0.111  0.556  0.519- 154 1.87 241 1.87 135 1.87 134 1.99 137 1.99 138 1.99
  21  0.111  0.556  0.815- 140 1.87 162 1.87 143 1.87 142 1.99 141 1.99 139 1.99
  22  0.222  0.444  0.685- 144 1.87 194 1.87 143 1.87 135 1.99 136 1.99 133 1.99
  23  0.222  0.444  0.981- 196 1.87 123 1.87 139 1.87 131 1.99 128 1.99 132 1.99
  24  0.000  0.333  0.852- 123 1.87 229 1.87 142 1.87 143 1.99 122 1.99 252 1.99
  25  0.000  0.667  0.148- 254 1.87 150 1.87 239 1.87 238 1.99 147 1.99 145 1.99
  26  0.111  0.889  0.019- 257 1.87 110 1.87 150 1.87 160 1.99 159 1.99 157 1.99
  27  0.111  0.889  0.315- 109 1.87 147 1.87 148 1.87 152 1.99 155 1.99 156 1.99
  28  0.222  0.778  0.185- 201 1.87 145 1.87 148 1.87 149 1.99 146 1.99 150 1.99
  29  0.222  0.778  0.481- 137 1.87 210 1.87 152 1.87 154 1.99 153 1.99 151 1.99
  30  0.000  0.667  0.352- 138 1.87 152 1.87 245 1.87 238 1.99 147 1.99 145 1.99
  31  0.000  0.667  0.648- 259 1.87 243 1.87 154 1.87 140 1.99 161 1.99 270 1.99
  32  0.111  0.889  0.519- 118 1.87 259 1.87 153 1.87 155 1.99 152 1.99 156 1.99
  33  0.111  0.889  0.815- 158 1.87 126 1.87 161 1.87 160 1.99 159 1.99 157 1.99
  34  0.222  0.778  0.685- 162 1.87 212 1.87 161 1.87 154 1.99 153 1.99 151 1.99
  35  0.222  0.778  0.981- 214 1.87 141 1.87 157 1.87 146 1.99 149 1.99 150 1.99
  36  0.000  0.667  0.852- 141 1.87 247 1.87 160 1.87 140 1.99 161 1.99 270 1.99
  37  0.333  0.000  0.148- 110 1.87 168 1.87 149 1.87 165 1.99 148 1.99 163 1.99
  38  0.444  0.222  0.019- 113 1.87 182 1.87 168 1.87 178 1.99 177 1.99 175 1.99
  39  0.444  0.222  0.315- 181 1.87 165 1.87 166 1.87 173 1.99 170 1.99 174 1.99
  40  0.556  0.111  0.185- 219 1.87 163 1.87 166 1.87 167 1.99 164 1.99 168 1.99
  41  0.556  0.111  0.481- 209 1.87 228 1.87 170 1.87 172 1.99 171 1.99 169 1.99
  42  0.333  0.000  0.352- 210 1.87 170 1.87 155 1.87 148 1.99 165 1.99 163 1.99
  43  0.333  0.000  0.648- 115 1.87 153 1.87 172 1.87 179 1.99 212 1.99 126 1.99
  44  0.444  0.222  0.519- 190 1.87 115 1.87 171 1.87 173 1.99 170 1.99 174 1.99
  45  0.444  0.222  0.815- 176 1.87 198 1.87 179 1.87 177 1.99 178 1.99 175 1.99
  46  0.556  0.111  0.685- 180 1.87 230 1.87 179 1.87 172 1.99 171 1.99 169 1.99
  47  0.556  0.111  0.981- 232 1.87 213 1.87 175 1.87 167 1.99 164 1.99 168 1.99
  48  0.333  0.000  0.852- 213 1.87 157 1.87 178 1.87 179 1.99 212 1.99 126 1.99
  49  0.333  0.333  0.148- 128 1.87 186 1.87 113 1.87 183 1.99 112 1.99 181 1.99
  50  0.444  0.556  0.019- 131 1.87 200 1.87 186 1.87 196 1.99 195 1.99 193 1.99
  51  0.444  0.556  0.315- 199 1.87 183 1.87 184 1.87 188 1.99 191 1.99 192 1.99
  52  0.556  0.444  0.185- 237 1.87 181 1.87 184 1.87 185 1.99 182 1.99 186 1.99
  53  0.556  0.444  0.481- 173 1.87 246 1.87 188 1.87 189 1.99 190 1.99 187 1.99
  54  0.333  0.333  0.352- 174 1.87 188 1.87 119 1.87 183 1.99 112 1.99 181 1.99
  55  0.333  0.333  0.648- 133 1.87 117 1.87 190 1.87 197 1.99 176 1.99 144 1.99
  56  0.444  0.556  0.519- 208 1.87 133 1.87 189 1.87 188 1.99 191 1.99 192 1.99
  57  0.444  0.556  0.815- 194 1.87 216 1.87 197 1.87 196 1.99 195 1.99 193 1.99
  58  0.556  0.444  0.685- 198 1.87 248 1.87 197 1.87 189 1.99 190 1.99 187 1.99
  59  0.556  0.444  0.981- 250 1.87 177 1.87 193 1.87 185 1.99 182 1.99 186 1.99
  60  0.333  0.333  0.852- 177 1.87 121 1.87 196 1.87 197 1.99 176 1.99 144 1.99
[...]
 256  0.898  0.898  0.250- 100 1.87  99 1.87   1 1.99   6 1.99
 257  0.991  0.880  0.083-  26 1.87   1 1.87 100 1.99 107 1.99
 258  0.787  0.778  0.083-  98 1.87  97 1.87 100 1.99 107 1.99
 259  0.991  0.778  0.583-  32 1.87  31 1.87 106 1.99 101 1.99
 260  0.778  0.787  0.417- 101 1.87 102 1.87  99 1.99 104 1.99
 261  0.889  0.880  0.583- 104 1.87   7 1.87 106 1.99 101 1.99
 262  0.787  0.676  0.583-  92 1.87 103 1.87 106 1.99 101 1.99
 263  0.880  0.991  0.417-  77 1.87   6 1.87  99 1.99 104 1.99
 264  0.676  0.889  0.417-  65 1.87  78 1.87  99 1.99 104 1.99
 265  0.880  0.889  0.917- 107 1.87  12 1.87 105 1.99  98 1.99
 266  0.667  0.898  0.750- 105 1.87  70 1.87  84 1.99  79 1.99
 267  0.778  0.991  0.917-  83 1.87  84 1.87 105 1.99  98 1.99
 268  0.676  0.787  0.917-  71 1.87 108 1.87 105 1.99  98 1.99
 269  0.769  0.769  0.750- 105 1.87 106 1.87 103 1.99 108 1.99
 270  0.898  0.667  0.750- 106 1.87  93 1.87  31 1.99  36 1.99

  LATTYP: Found a hexagonal cell.
 ALAT       =    14.4150840000
 C/A-ratio  =     0.9098978542

  Lattice vectors:

 A1 = (  14.4150840000,   0.0000000000,   0.0000000000)
 A2 = (  -7.2075420000,  12.4838280000,   0.0000000000)
 A3 = (   0.0000000000,   0.0000000000,  13.1162540000)

Analysis of symmetry for initial positions (statically):
 Subroutine PRICEL returns following result:

  LATTYP: Found a trigonal (rhomboedric) cell.
 ALAT       =     5.1779502167
 COS(alpha) =     0.5694279056

[...]

  27 primitive cells build up your supercell.

 Routine SETGRP: Setting up the symmetry group for a
 hexagonal supercell.

 Subroutine GETGRP returns: Found 12 space group operations
 (whereof  6 operations were pure point group operations)
 out of a pool of 24 trial point group operations.

The static configuration has the point symmetry S_6 .
 The point group associated with its full space group is D_3d.

Analysis of symmetry for dynamics (positions and initial velocities):
 Subroutine PRICEL returns following result:

  LATTYP: Found a trigonal (rhomboedric) cell.
 ALAT       =     5.1779502167
 COS(alpha) =     0.5694279056

  Lattice vectors:

 A1 = (  -2.4025115975,   1.3870906129,   4.3720802946)
 A2 = (   0.0000024025,  -2.7741853871,   4.3720802946)
 A3 = (   2.4025091950,   1.3870947742,   4.3720934108)

  27 primitive cells build up your supercell.

 Routine SETGRP: Setting up the symmetry group for a
 hexagonal supercell.

 Subroutine GETGRP returns: Found 12 space group operations
 (whereof  6 operations were pure point group operations)
 out of a pool of 24 trial point group operations.

The dynamic configuration has the point symmetry S_6 .
 The point group associated with its full space group is D_3d.

 Subroutine INISYM returns: Found 12 space group operations
 (whereof  6 operations are pure point group operations),
 and found    27 'primitive' translations

                                     Primitive cell

  volume of cell :      87.4200

  direct lattice vectors                    reciprocal lattice vectors
    -2.402511597  1.387090613  4.372080295    -0.208115957  0.120155092  0.076241280
     0.000002403 -2.774185387  4.372080295    -0.000000000 -0.240310905  0.076241280
     2.402509195  1.387094774  4.372093411     0.208115333  0.120155452  0.076241280

  length of vectors
     5.177950217  5.177952362  5.177961292     0.252115510  0.252115180  0.252115167

  position of ions in fractional coordinates (direct lattice)
[...]
   -.260E-03 -.808E-04 0.148E+02   0.234E-03 -.130E-03 -.160E+02   0.174E-19 -.422E-19 0.118E+01   -.149E-09 -.165E-06 0.107E-05
   0.581E-04 -.260E-03 -.148E+02   -.228E-03 0.130E-03 0.160E+02   -.529E-19 -.246E-19 -.118E+01   -.143E-06 -.828E-07 -.107E-05
   0.346E-03 0.173E-04 0.148E+02   -.401E-03 0.233E-03 -.160E+02   0.407E-19 -.186E-19 0.118E+01   -.124E-06 -.770E-07 0.956E-06
   0.903E-04 0.169E-03 -.148E+02   -.170E-03 0.933E-04 0.160E+02   -.847E-21 -.474E-19 -.118E+01   -.311E-08 -.113E-09 -.700E-06
   -.903E-04 -.169E-03 0.148E+02   0.170E-03 -.933E-04 -.160E+02   0.799E-19 0.169E-20 0.118E+01   0.311E-08 0.111E-09 0.700E-06
   -.333E-03 -.274E-04 -.148E+02   0.401E-03 -.233E-03 0.160E+02   -.845E-19 0.130E-19 -.118E+01   -.496E-08 -.143E-06 -.956E-06
   -.127E-03 0.246E-03 0.148E+02   0.228E-03 -.130E-03 -.160E+02   -.271E-19 -.390E-19 0.118E+01   0.170E-08 -.168E-06 0.107E-05
   0.282E-03 0.143E-04 -.148E+02   -.234E-03 0.130E-03 0.160E+02   0.889E-19 0.119E-19 -.118E+01   -.146E-06 -.825E-07 -.107E-05
   0.137E-03 -.303E-03 0.148E+02   -.395E-03 0.233E-03 -.160E+02   0.254E-19 0.161E-19 0.118E+01   -.122E-06 -.759E-07 0.956E-06
   -.103E-03 -.157E-03 -.148E+02   -.164E-03 0.933E-04 0.160E+02   -.122E-18 0.296E-19 -.118E+01   -.146E-08 0.274E-08 -.700E-06
   0.508E-04 0.320E-03 0.148E+02   0.164E-03 -.933E-04 -.160E+02   -.286E-20 -.265E-19 0.118E+01   0.761E-07 -.105E-06 0.671E-06
   -.612E-04 0.418E-03 -.148E+02   0.395E-03 -.233E-03 0.160E+02   0.453E-19 0.119E-19 -.118E+01   -.929E-08 -.485E-08 -.939E-06
   -.190E-03 0.115E-04 0.148E+02   0.234E-03 -.130E-03 -.160E+02   0.252E-19 -.974E-20 0.118E+01   -.173E-07 -.214E-07 0.108E-05
   0.725E-04 -.419E-03 -.148E+02   -.228E-03 0.130E-03 0.160E+02   -.142E-19 0.212E-20 -.118E+01   -.803E-08 -.105E-06 -.111E-05
   0.323E-03 -.116E-03 0.148E+02   -.401E-03 0.233E-03 -.160E+02   -.144E-19 0.508E-20 0.118E+01   0.400E-08 -.110E-06 0.995E-06
   -.705E-05 0.298E-03 -.148E+02   -.170E-03 0.933E-04 0.160E+02   -.222E-19 0.847E-20 -.118E+01   0.478E-07 -.116E-06 -.671E-06
   -.181E-03 -.425E-04 0.148E+02   0.170E-03 -.933E-04 -.160E+02   0.216E-19 -.191E-19 0.118E+01   0.840E-07 -.112E-06 0.666E-06
   -.224E-03 0.169E-04 -.148E+02   0.401E-03 -.233E-03 0.160E+02   -.454E-19 0.371E-20 -.118E+01   -.115E-07 0.399E-08 -.939E-06
   0.974E-07 0.346E-03 0.148E+02   0.228E-03 -.130E-03 -.160E+02   -.231E-19 -.180E-20 0.118E+01   -.288E-07 -.698E-08 0.108E-05
   0.300E-03 -.909E-04 -.148E+02   -.234E-03 0.130E-03 0.160E+02   0.125E-19 -.131E-19 -.118E+01   0.639E-08 -.108E-06 -.111E-05
   0.165E-03 -.447E-03 0.148E+02   -.395E-03 0.233E-03 -.160E+02   0.339E-19 -.455E-20 0.118E+01   0.557E-08 -.107E-06 0.995E-06
   -.162E-03 -.170E-04 -.148E+02   -.164E-03 0.933E-04 0.160E+02   -.363E-19 0.180E-20 -.118E+01   0.548E-07 -.123E-06 -.666E-06
   0.162E-03 0.170E-04 0.148E+02   0.164E-03 -.933E-04 -.160E+02   -.171E-19 -.170E-19 0.118E+01   -.548E-07 0.123E-06 0.666E-06
   -.139E-03 0.327E-03 -.148E+02   0.395E-03 -.233E-03 0.160E+02   0.164E-19 0.188E-19 -.118E+01   -.134E-06 0.744E-07 -.956E-06
   -.324E-03 -.708E-04 0.148E+02   0.234E-03 -.130E-03 -.160E+02   0.237E-19 0.136E-19 0.118E+01   -.141E-06 0.854E-07 0.107E-05
   -.105E-04 -.189E-03 -.148E+02   -.228E-03 0.130E-03 0.160E+02   -.275E-19 0.542E-19 -.118E+01   -.887E-07 0.622E-07 -.111E-05
   0.247E-03 0.101E-03 0.148E+02   -.401E-03 0.233E-03 -.160E+02   -.148E-20 -.339E-19 0.118E+01   -.876E-07 0.490E-07 0.995E-06
   0.181E-03 0.425E-04 -.148E+02   -.170E-03 0.933E-04 0.160E+02   0.313E-19 0.232E-19 -.118E+01   -.840E-07 0.112E-06 -.666E-06
   0.705E-05 -.298E-03 0.148E+02   0.170E-03 -.933E-04 -.160E+02   0.500E-19 0.254E-20 0.118E+01   -.478E-07 0.116E-06 0.671E-06
   -.355E-03 -.374E-04 -.148E+02   0.401E-03 -.233E-03 0.160E+02   -.491E-19 0.152E-19 -.118E+01   -.131E-06 0.784E-07 -.956E-06
   -.989E-04 0.310E-03 0.148E+02   0.228E-03 -.130E-03 -.160E+02   0.580E-19 -.356E-19 0.118E+01   -.145E-06 0.798E-07 0.107E-05
   0.164E-03 0.105E-03 -.148E+02   -.234E-03 0.130E-03 0.160E+02   0.193E-19 0.188E-19 -.118E+01   -.982E-07 0.457E-07 -.111E-05
   0.301E-04 -.265E-03 0.148E+02   -.395E-03 0.233E-03 -.160E+02   0.339E-19 -.192E-19 0.118E+01   -.862E-07 0.514E-07 0.995E-06
   -.508E-04 -.320E-03 -.148E+02   -.164E-03 0.933E-04 0.160E+02   -.381E-19 -.593E-20 -.118E+01   -.761E-07 0.105E-06 -.671E-06
   0.264E-03 0.138E-03 0.148E+02   0.164E-03 -.933E-04 -.160E+02   -.210E-19 -.442E-19 0.118E+01   -.124E-06 -.165E-07 0.671E-06
   -.256E-03 0.223E-03 -.148E+02   0.395E-03 -.233E-03 0.160E+02   0.468E-19 0.368E-19 -.118E+01   -.972E-07 -.515E-07 -.995E-06
   -.405E-03 -.148E-03 0.148E+02   0.234E-03 -.130E-03 -.160E+02   0.371E-19 -.424E-19 0.118E+01   -.871E-07 -.595E-07 0.111E-05
   0.103E-03 -.153E-03 -.148E+02   -.228E-03 0.130E-03 0.160E+02   -.110E-19 -.169E-19 -.118E+01   -.990E-08 -.257E-07 -.108E-05
   0.394E-03 0.150E-03 0.148E+02   -.401E-03 0.233E-03 -.160E+02   -.434E-19 -.142E-19 0.118E+01   0.452E-09 -.105E-07 0.939E-06
   0.257E-03 0.205E-03 -.148E+02   -.170E-03 0.933E-04 0.160E+02   -.146E-19 0.593E-20 -.118E+01   -.129E-06 0.136E-07 -.671E-06
   0.608E-04 -.150E-03 0.148E+02   0.170E-03 -.933E-04 -.160E+02   0.600E-19 -.498E-20 0.118E+01   -.134E-06 -.141E-07 0.666E-06
   -.472E-03 -.750E-04 -.148E+02   0.401E-03 -.233E-03 0.160E+02   0.199E-19 0.280E-19 -.118E+01   -.958E-07 -.489E-07 -.995E-06
   -.227E-03 0.209E-03 0.148E+02   0.228E-03 -.130E-03 -.160E+02   -.762E-20 -.178E-19 0.118E+01   -.966E-07 -.484E-07 0.111E-05
   0.306E-03 0.174E-03 -.148E+02   -.234E-03 0.130E-03 0.160E+02   -.517E-19 -.169E-20 -.118E+01   0.833E-08 -.284E-07 -.108E-05
   0.121E-03 -.187E-03 0.148E+02   -.395E-03 0.233E-03 -.160E+02   0.695E-19 0.102E-19 0.118E+01   0.919E-08 -.793E-08 0.939E-06
   0.519E-04 -.173E-03 -.148E+02   -.164E-03 0.933E-04 0.160E+02   -.144E-19 0.132E-19 -.118E+01   -.139E-06 0.169E-07 -.666E-06
   0.200E-03 0.296E-03 0.148E+02   0.164E-03 -.933E-04 -.160E+02   0.260E-19 -.354E-19 0.118E+01   -.795E-07 -.114E-06 0.666E-06
   -.278E-03 0.338E-03 -.148E+02   0.395E-03 -.233E-03 0.160E+02   0.161E-19 -.191E-19 -.118E+01   0.182E-08 0.146E-08 -.939E-06
   -.398E-03 0.106E-04 0.148E+02   0.234E-03 -.130E-03 -.160E+02   -.381E-20 -.305E-19 0.118E+01   0.303E-07 -.430E-08 0.108E-05
   0.206E-03 -.334E-03 -.148E+02   -.228E-03 0.130E-03 0.160E+02   -.157E-19 0.445E-19 -.118E+01   -.189E-07 0.241E-07 -.108E-05
   0.434E-03 -.773E-04 0.148E+02   -.401E-03 0.233E-03 -.160E+02   0.275E-20 -.415E-19 0.118E+01   0.363E-09 0.231E-08 0.939E-06
   0.162E-03 0.322E-03 -.148E+02   -.170E-03 0.933E-04 0.160E+02   0.889E-20 0.381E-19 -.118E+01   -.594E-07 -.126E-06 -.666E-06
   -.328E-04 -.133E-04 0.148E+02   0.170E-03 -.933E-04 -.160E+02   -.720E-20 0.301E-19 0.118E+01   -.715E-07 -.102E-06 0.671E-06
   -.434E-03 0.773E-04 -.148E+02   0.401E-03 -.233E-03 0.160E+02   -.250E-19 0.805E-20 -.118E+01   -.362E-09 -.231E-08 -.939E-06
   -.206E-03 0.334E-03 0.148E+02   0.228E-03 -.130E-03 -.160E+02   0.686E-19 -.339E-19 0.118E+01   0.189E-07 -.241E-07 0.108E-05
   0.398E-03 -.106E-04 -.148E+02   -.234E-03 0.130E-03 0.160E+02   -.359E-19 0.178E-19 -.118E+01   -.303E-07 0.430E-08 -.108E-05
   0.278E-03 -.338E-03 0.148E+02   -.395E-03 0.233E-03 -.160E+02   0.109E-19 0.963E-20 0.118E+01   -.182E-08 -.146E-08 0.939E-06
   0.300E-05 -.294E-04 -.148E+02   -.164E-03 0.933E-04 0.160E+02   -.415E-19 -.593E-20 -.118E+01   -.524E-07 -.113E-06 -.671E-06
[...]
   -.155E+02 -.268E+02 0.687E-02   0.158E+02 0.273E+02 0.221E-02   -.325E+00 -.563E+00 0.500E-19   -.282E-04 -.483E-04 -.555E-06
   0.309E+02 0.264E-02 0.690E-02   -.316E+02 -.184E-03 0.165E-02   0.650E+00 -.614E-19 0.173E-19   0.562E-04 0.331E-06 -.585E-06
   -.309E+02 0.244E-02 0.692E-02   0.316E+02 -.435E-03 0.177E-02   -.650E+00 0.474E-19 -.116E-19   -.562E-04 0.291E-06 -.593E-06
   -.154E+02 0.268E+02 -.690E-02   0.158E+02 -.273E+02 -.164E-02   -.325E+00 0.563E+00 -.115E-18   -.278E-04 0.489E-04 0.585E-06
   0.154E+02 -.268E+02 0.707E-02   -.158E+02 0.273E+02 0.164E-02   0.325E+00 -.563E+00 0.436E-19   0.281E-04 -.483E-04 -.550E-06
   0.154E+02 0.268E+02 0.687E-02   -.158E+02 -.273E+02 0.222E-02   0.325E+00 0.563E+00 -.364E-19   0.281E-04 0.489E-04 -.618E-06
   -.155E+02 -.268E+02 -.687E-02   0.158E+02 0.273E+02 -.222E-02   -.325E+00 -.563E+00 0.144E-18   -.278E-04 -.486E-04 0.555E-06
   0.309E+02 -.203E-02 -.710E-02   -.316E+02 0.435E-03 -.177E-02   0.650E+00 -.919E-19 0.339E-20   0.564E-04 0.108E-06 0.621E-06
   -.309E+02 -.296E-02 -.706E-02   0.316E+02 0.184E-03 -.165E-02   -.650E+00 0.491E-19 -.136E-19   -.559E-04 0.200E-06 0.550E-06
   -.155E+02 0.268E+02 -.683E-05   0.158E+02 -.273E+02 -.116E-03   -.325E+00 0.563E+00 -.271E-19   -.277E-04 0.487E-04 -.382E-07
   0.155E+02 -.268E+02 -.692E-02   -.158E+02 0.273E+02 -.178E-02   0.325E+00 -.563E+00 0.322E-19   0.284E-04 -.486E-04 0.593E-06
   0.155E+02 0.268E+02 -.687E-02   -.158E+02 -.273E+02 -.221E-02   0.325E+00 0.563E+00 -.508E-20   0.283E-04 0.488E-04 0.618E-06
   -.155E+02 -.268E+02 0.199E-05   0.158E+02 0.273E+02 -.568E-05   -.325E+00 -.563E+00 0.339E-19   -.278E-04 -.482E-04 -.273E-10
   0.309E+02 0.753E-04 0.497E-05   -.316E+02 -.252E-03 0.122E-03   0.650E+00 0.974E-19 -.252E-19   0.560E-04 0.351E-06 0.383E-07
   0.723E-10 0.656E-10 0.438E-09   -.583E-12 -.145E-11 -.518E-12   -.344E-14 0.655E-14 0.222E-14   -.253E-11 -.197E-11 -.813E-11

 POSITION                                       TOTAL-FORCE (eV/Angst)
     -0.00000     -0.00000      1.93920         0.000000      0.000000     -0.000148
     -0.00000      2.77419      0.24684         0.000000     -0.000000      0.000148
     -0.00000      2.77419      4.12525        -0.000000     -0.000000     -0.000148
      2.40252      1.38709      2.43288        -0.000000      0.000000      0.000148
      2.40252      1.38709      6.31128         0.000000      0.000000     -0.000148
     -0.00000     -0.00000      4.61892         0.000000     -0.000000      0.000148
     -0.00000     -0.00000      8.49733        -0.000000     -0.000000     -0.000148
     -0.00000      2.77419      6.80497        -0.000000     -0.000000      0.000148
     -0.00000      2.77419     10.68338        -0.000000      0.000000     -0.000148
      2.40252      1.38709      8.99100         0.000000     -0.000000      0.000148
      2.40252      1.38709     12.86941        -0.000000     -0.000000     -0.000148
     -0.00000     -0.00000     11.17705        -0.000000      0.000000      0.000148
     -2.40251      4.16128      1.93920         0.000000      0.000000     -0.000148
     -2.40252      6.93546      0.24684        -0.000000     -0.000000      0.000148
     -2.40252      6.93546      4.12525         0.000000     -0.000000     -0.000148
      0.00000      5.54837      2.43288        -0.000000      0.000000      0.000148
      0.00000      5.54837      6.31128         0.000000      0.000000     -0.000148
     -2.40251      4.16128      4.61892         0.000000     -0.000000      0.000148
     -2.40251      4.16128      8.49733         0.000000     -0.000000     -0.000148
     -2.40252      6.93546      6.80497         0.000000     -0.000000      0.000148
     -2.40252      6.93546     10.68338        -0.000000     -0.000000     -0.000148
      0.00000      5.54837      8.99100         0.000000     -0.000000      0.000148
      0.00000      5.54837     12.86941         0.000000     -0.000000     -0.000148
     -2.40251      4.16128     11.17705        -0.000000     -0.000000      0.000148
     -4.80503      8.32255      1.93920        -0.000000      0.000000     -0.000148
     -4.80503     11.09674      0.24684        -0.000000     -0.000000      0.000148
     -4.80503     11.09674      4.12525        -0.000000     -0.000000     -0.000148
     -2.40251      9.70964      2.43288         0.000000     -0.000000      0.000148
     -2.40251      9.70964      6.31128        -0.000000     -0.000000     -0.000148
     -4.80503      8.32255      4.61892        -0.000000     -0.000000      0.000148
     -4.80503      8.32255      8.49733        -0.000000     -0.000000     -0.000148
     -4.80503     11.09674      6.80497         0.000000      0.000000      0.000148
     -4.80503     11.09674     10.68338         0.000000      0.000000     -0.000148
     -2.40251      9.70964      8.99100         0.000000     -0.000000      0.000148
     -2.40251      9.70964     12.86941         0.000000     -0.000000     -0.000148
     -4.80503      8.32255     11.17705         0.000000      0.000000      0.000148
      4.80503     -0.00000      1.93920        -0.000000      0.000000     -0.000148
      4.80503      2.77419      0.24684         0.000000     -0.000000      0.000148
      4.80503      2.77419      4.12525        -0.000000     -0.000000     -0.000148
      7.20754      1.38709      2.43288         0.000000      0.000000      0.000148
      7.20754      1.38709      6.31128        -0.000000      0.000000     -0.000148
      4.80503     -0.00000      4.61892         0.000000     -0.000000      0.000148
      4.80503     -0.00000      8.49733        -0.000000     -0.000000     -0.000148
      4.80503      2.77419      6.80497         0.000000      0.000000      0.000148
      4.80503      2.77419     10.68338         0.000000      0.000000     -0.000148
      7.20754      1.38709      8.99100         0.000000     -0.000000      0.000148
      7.20754      1.38709     12.86941        -0.000000     -0.000000     -0.000148
      4.80503     -0.00000     11.17705         0.000000     -0.000000      0.000148
      2.40251      4.16128      1.93920         0.000000      0.000000     -0.000148
      2.40251      6.93546      0.24684         0.000000     -0.000000      0.000148
      2.40251      6.93546      4.12525        -0.000000     -0.000000     -0.000148
      4.80503      5.54837      2.43288         0.000000      0.000000      0.000148
      4.80503      5.54837      6.31128         0.000000      0.000000     -0.000148
      2.40251      4.16128      4.61892         0.000000     -0.000000      0.000148
      2.40251      4.16128      8.49733        -0.000000     -0.000000     -0.000148
      2.40251      6.93546      6.80497         0.000000     -0.000000      0.000148
      2.40251      6.93546     10.68338         0.000000      0.000000     -0.000148
      4.80503      5.54837      8.99100         0.000000     -0.000000      0.000148
      4.80503      5.54837     12.86941        -0.000000     -0.000000     -0.000148
      2.40251      4.16128     11.17705         0.000000     -0.000000      0.000148
[...]
      6.47215     11.21009      3.27906        -0.000092     -0.000160      0.000000
      7.94294     10.98338      1.09302         0.000092      0.000160      0.000000
      5.73675      9.70964      1.09302        -0.000185     -0.000000      0.000000
      8.67833      9.70964      7.65114         0.000185     -0.000000     -0.000000
      5.54042      9.82300      5.46511         0.000092     -0.000160      0.000000
      6.47215     10.98338      7.65114        -0.000092      0.000160      0.000000
      6.47215      8.43590      7.65114        -0.000092     -0.000160      0.000000
      5.54042     12.37048      5.46511         0.000092      0.000160      0.000000
      3.33424     11.09674      5.46511        -0.000185     -0.000000      0.000000
      6.27582     11.09674     12.02324         0.000185     -0.000000      0.000000
      3.13791     11.21009      9.83719         0.000092     -0.000160      0.000000
      4.06963     12.37048     12.02324        -0.000092      0.000160      0.000000
      4.06963      9.82300     12.02324        -0.000092     -0.000160      0.000000
      5.54042      9.59629      9.83719         0.000092      0.000160      0.000000
      8.13927      8.32255      9.83719        -0.000185     -0.000000     -0.000000
    total drift:                                0.000000      0.000000      0.000000

  FREE ENERGIE OF THE ION-ELECTRON SYSTEM (eV)
  free  energy   TOTEN  =     -2059.12212452 eV

  energy  without entropy=    -2059.12212452  energy(sigma->0) =    -2059.12212452

 d Force = 0.2653264E-03[ 0.315E-05, 0.528E-03]  d Energy = 0.2191370E-03 0.462E-04
 d Force = 0.5184521E-02[ 0.529E-02, 0.508E-02]  d Ewald  = 0.5141838E-02 0.427E-04

 stress matrix after NEB project (eV)
    -63.72465      0.00000      0.00000
      0.00000    -63.72465      0.00000
      0.00000      0.00000    -63.20922
  FORCES: max atom, RMS     0.000185    0.000171
  FORCE total and by dimension    0.002810    0.000185
  Stress total and by dimension  110.077559   63.724655

 reached required accuracy - stopping structural energy minimisation