 vasp.6.2.1 16May21 (build Jun 16 2021 03:23:30) complex
 executed on             LinuxPGI date 2022.04.25  11:32:42

 INCAR:
   SYSTEM = NiAl
   ISTART = 0
   EDIFF = 5E-6
   NELMIN = 6
   ISIF = 0
   IVDW = 12
   LWAVE = .FALSE.
   LCHARG = .FALSE.
   LREAL = Auto
   NCORE = 1
   LPLANE = .TRUE.
   ENCUT = 360.00 eV
   ISMEAR = 0
   SIGMA = 0.05

 POTCAR:    PAW Al_GW 19Mar2012
 POTCAR:    PAW O_GW 19Mar2012
 POTCAR:    PAW Al_GW 19Mar2012
   VRHFIN =Al: s2p1

   TITEL  = PAW Al_GW 19Mar2012
   POMASS =   26.982; ZVAL   =    3.000    mass and valenz
   ENMAX  =  240.300; ENMIN  =  180.225 eV

 POTCAR:    PAW O_GW 19Mar2012
   VRHFIN =O: s2p4

   TITEL  = PAW O_GW 19Mar2012
   POMASS =   16.000; ZVAL   =    6.000    mass and valenz
   ENMAX  =  434.431; ENMIN  =  325.824 eV

 Optimization of the real space projectors (new method)

 maximal supplied QI-value         = 18.90
 optimisation between [QCUT,QGAM] = [  9.64, 19.28] = [ 26.01,104.04] Ry
 Optimized for a Real-space Cutoff    1.46 Angstroem

   l    n(q)    QCUT    max X(q) W(low)/X(q) W(high)/X(q)  e(spline)
   0      8     9.638    11.519    0.10E-03    0.23E-03    0.86E-07
   0      8     9.638     5.834    0.72E-04    0.17E-03    0.68E-07
   1      8     9.638    10.132    0.33E-03    0.11E-03    0.32E-06
   1      8     9.638     3.004    0.25E-03    0.10E-03    0.24E-06
   2      7     9.638     3.169    0.30E-03    0.50E-03    0.35E-06
   2      7     9.638     1.607    0.15E-03    0.13E-03    0.12E-06
 Optimization of the real space projectors (new method)

 maximal supplied QI-value         = 23.62
 optimisation between [QCUT,QGAM] = [  9.68, 19.37] = [ 26.27,105.06] Ry
 Optimized for a Real-space Cutoff    2.14 Angstroem

   l    n(q)    QCUT    max X(q) W(low)/X(q) W(high)/X(q)  e(spline)
   0     13     9.685   116.464    0.15E-03    0.15E-03    0.47E-05
   0     13     9.685   116.329    0.15E-03    0.15E-03    0.46E-05
   0     13     9.685     0.942    0.20E-04    0.50E-04    0.17E-05
   1     12     9.685    29.046    0.36E-03    0.11E-02    0.25E-04
   1     12     9.685    24.247    0.38E-03    0.11E-02    0.26E-04
   1     12     9.685     2.381    0.13E-03    0.38E-03    0.78E-05
   2     12     9.685     2.237    0.60E-05    0.28E-04    0.14E-05
   2     12     9.685     1.850    0.17E-04    0.70E-04    0.25E-05
  PAW Al_GW 19Mar2012                   :
  PAW O_GW 19Mar2012                    :

 POSCAR: New structure
  positions in cartesian coordinates
 exchange correlation table for  LEXCH =        8
   RHO(1)=    0.500       N(1)  =     2000
   RHO(2)=  100.500       N(2)  =     4000

 VTST: version 4.1, (05/19/21)

 CHAIN: initializing optimizer

 OPT: Using VASP Dynamics algorithm
 CHAIN: Read ICHAIN             0

 POSCAR: New structure
  positions in cartesian coordinates

 ion  position               nearest neighbor table
   1  0.444  0.444  0.079-
   2  0.444  0.778  0.079-
   3  0.444  0.111  0.079-
   4  0.778  0.444  0.079-
   5  0.778  0.778  0.079-
   6  0.778  0.111  0.079-
   7  0.111  0.444  0.079-
   8  0.111  0.778  0.079-
   9  0.111  0.111  0.079-
  10  0.556  0.556  0.157-
  11  0.556  0.889  0.157-
  12  0.556  0.222  0.157-
  13  0.889  0.556  0.157-
  14  0.889  0.889  0.157-
  15  0.889  0.222  0.157-
  16  0.222  0.556  0.157-
  17  0.222  0.889  0.157-
  18  0.222  0.222  0.157-
  19  0.667  0.667  0.234-
  20  0.667  0.000  0.234-
  21  0.667  0.333  0.234-
  22  0.000  0.667  0.234-
  23  0.000  0.000  0.234-
  24  0.000  0.333  0.234-
  25  0.333  0.667  0.234-
  26  0.333  0.000  0.234-
  27  0.333  0.333  0.234-
  28  0.778  0.778  0.312-
  29  0.778  0.111  0.312-
  30  0.778  0.444  0.312-
  31  0.111  0.778  0.312-
  32  0.111  0.111  0.312-
  33  0.111  0.444  0.312-
  34  0.444  0.778  0.312-
  35  0.444  0.111  0.312-
  36  0.444  0.444  0.312-
  37  0.889  0.889  0.390-
  38  0.889  0.222  0.390-
  39  0.889  0.556  0.390-
  40  0.222  0.889  0.390-
  41  0.222  0.222  0.390-
  42  0.222  0.556  0.390-
  43  0.556  0.889  0.390-
  44  0.556  0.222  0.390-
  45  0.556  0.556  0.390-
  46  0.000  0.000  0.466-
  47  0.000  0.333  0.466-
  48  0.000  0.667  0.466-
  49  0.333  0.000  0.466-
  50  0.333  0.333  0.466-
  51  0.333  0.667  0.466-
  52  0.667  0.000  0.466-
  53  0.667  0.333  0.466-
  54  0.667  0.667  0.466-
  55  0.111  0.111  0.545-
  56  0.111  0.444  0.545-
  57  0.111  0.778  0.545-
  58  0.444  0.111  0.545-
  59  0.444  0.444  0.545- 254 1.97 253 1.97
  60  0.444  0.778  0.545-
  61  0.778  0.111  0.545-
  62  0.778  0.444  0.545-
  63  0.778  0.778  0.545-
  64  0.278  0.278  0.079-
  65  0.278  0.611  0.079-
  66  0.278  0.944  0.079-
  67  0.611  0.278  0.079-
  68  0.611  0.611  0.079-
  69  0.611  0.944  0.079-
  70  0.944  0.278  0.079-
  71  0.944  0.611  0.079-
  72  0.944  0.944  0.079-
  73  0.389  0.389  0.157-
  74  0.389  0.722  0.157-
  75  0.389  0.056  0.157-
  76  0.722  0.389  0.157-
  77  0.722  0.722  0.157-
  78  0.722  0.056  0.157-
  79  0.056  0.389  0.157-
  80  0.056  0.722  0.157-
  81  0.056  0.056  0.157-
  82  0.500  0.500  0.234-
  83  0.500  0.833  0.234-
  84  0.500  0.167  0.234-
  85  0.833  0.500  0.234-
  86  0.833  0.833  0.234-
  87  0.833  0.167  0.234-
  88  0.167  0.500  0.234-
  89  0.167  0.833  0.234-
  90  0.167  0.167  0.234-
  91  0.611  0.611  0.312-
  92  0.611  0.944  0.312-
  93  0.611  0.278  0.312-
  94  0.944  0.611  0.312-
  95  0.944  0.944  0.312-
  96  0.944  0.278  0.312-
  97  0.278  0.611  0.312-
  98  0.278  0.944  0.312-
  99  0.278  0.278  0.312-
 100  0.722  0.722  0.390-
 101  0.722  0.056  0.390-
 102  0.722  0.389  0.390-
 103  0.056  0.722  0.390-
 104  0.056  0.056  0.390-
 105  0.056  0.389  0.390-
 106  0.389  0.722  0.390-
 107  0.389  0.056  0.390-
 108  0.389  0.389  0.390-
 109  0.833  0.833  0.466-
 110  0.833  0.167  0.466-
 111  0.833  0.500  0.466-
 112  0.167  0.833  0.466-
 113  0.167  0.167  0.466-
 114  0.167  0.500  0.466-
 115  0.500  0.833  0.466-
 116  0.500  0.167  0.466-
 117  0.500  0.500  0.466-
 118  0.944  0.944  0.545-
 119  0.944  0.278  0.545-
 120  0.944  0.611  0.545-
 121  0.278  0.944  0.545-
 122  0.278  0.278  0.545-
 123  0.278  0.611  0.545- 253 2.21
 124  0.611  0.944  0.545-
 125  0.611  0.278  0.545-
 126  0.611  0.611  0.545-
 127  0.278  0.444  0.079-
 128  0.278  0.778  0.079-
 129  0.278  0.111  0.079-
 130  0.611  0.444  0.079-
 131  0.611  0.778  0.079-
 132  0.611  0.111  0.079-
 133  0.944  0.444  0.079-
 134  0.944  0.778  0.079-
 135  0.944  0.111  0.079-
 136  0.389  0.556  0.157-
 137  0.389  0.889  0.157-
 138  0.389  0.222  0.157-
 139  0.722  0.556  0.157-
 140  0.722  0.889  0.157-
 141  0.722  0.222  0.157-
 142  0.056  0.556  0.157-
 143  0.056  0.889  0.157-
 144  0.056  0.222  0.157-
 145  0.500  0.667  0.234-
 146  0.500  0.000  0.234-
 147  0.500  0.333  0.234-
 148  0.833  0.667  0.234-
 149  0.833  0.000  0.234-
 150  0.833  0.333  0.234-
 151  0.167  0.667  0.234-
 152  0.167  0.000  0.234-
 153  0.167  0.333  0.234-
 154  0.611  0.778  0.312-
 155  0.611  0.111  0.312-
 156  0.611  0.444  0.312-
 157  0.944  0.778  0.312-
 158  0.944  0.111  0.312-
 159  0.944  0.444  0.312-
 160  0.278  0.778  0.312-
 161  0.278  0.111  0.312-
 162  0.278  0.444  0.312-
 163  0.722  0.889  0.390-
 164  0.722  0.222  0.390-
 165  0.722  0.556  0.390-
 166  0.056  0.889  0.390-
 167  0.056  0.222  0.390-
 168  0.056  0.556  0.390-
 169  0.389  0.889  0.390-
 170  0.389  0.222  0.390-
 171  0.389  0.556  0.390-
 172  0.833  0.000  0.466-
 173  0.833  0.333  0.466-
 174  0.833  0.667  0.466-
 175  0.167  0.000  0.466-
 176  0.167  0.333  0.466-
 177  0.167  0.667  0.466-
 178  0.500  0.000  0.466-
 179  0.500  0.333  0.466-
 180  0.500  0.667  0.466-
 181  0.944  0.111  0.545-
 182  0.944  0.444  0.545-
 183  0.944  0.778  0.545-
 184  0.278  0.111  0.545-
 185  0.278  0.444  0.545- 254 1.97 253 1.97
 186  0.278  0.778  0.545-
 187  0.611  0.111  0.545-
 188  0.611  0.444  0.545-
 189  0.611  0.778  0.545-
 190  0.444  0.278  0.079-
 191  0.444  0.611  0.079-
 192  0.444  0.944  0.079-
 193  0.778  0.278  0.079-
 194  0.778  0.611  0.079-
 195  0.778  0.944  0.079-
 196  0.111  0.278  0.079-
 197  0.111  0.611  0.079-
 198  0.111  0.944  0.079-
 199  0.556  0.389  0.157-
 200  0.556  0.722  0.157-
 201  0.556  0.056  0.157-
 202  0.889  0.389  0.157-
 203  0.889  0.722  0.157-
 204  0.889  0.056  0.157-
 205  0.222  0.389  0.157-
 206  0.222  0.722  0.157-
 207  0.222  0.056  0.157-
 208  0.667  0.500  0.234-
 209  0.667  0.833  0.234-
 210  0.667  0.167  0.234-
 211  1.000  0.500  0.234-
 212  1.000  0.833  0.234-
 213  1.000  0.167  0.234-
 214  0.333  0.500  0.234-
 215  0.333  0.833  0.234-
 216  0.333  0.167  0.234-
 217  0.778  0.611  0.312-
 218  0.778  0.944  0.312-
 219  0.778  0.278  0.312-
 220  0.111  0.611  0.312-
 221  0.111  0.944  0.312-
 222  0.111  0.278  0.312-
 223  0.444  0.611  0.312-
 224  0.444  0.944  0.312-
 225  0.444  0.278  0.312-
 226  0.889  0.722  0.390-
 227  0.889  0.056  0.390-
 228  0.889  0.389  0.390-
 229  0.222  0.722  0.390-
 230  0.222  0.056  0.390-
 231  0.222  0.389  0.390-
 232  0.556  0.722  0.390-
 233  0.556  0.056  0.390-
 234  0.556  0.389  0.390-
 235  1.000  0.833  0.466-
 236  1.000  0.167  0.466-
 237  1.000  0.500  0.466-
 238  0.333  0.833  0.466-
 239  0.333  0.167  0.466-
 240  0.333  0.500  0.466-
 241  0.667  0.833  0.466-
 242  0.667  0.167  0.466-
 243  0.667  0.500  0.466-
 244  0.111  0.944  0.545-
 245  0.111  0.278  0.545-
 246  0.111  0.611  0.545-
 247  0.444  0.944  0.545-
 248  0.444  0.278  0.545- 254 2.21
 249  0.444  0.611  0.545-
 250  0.778  0.944  0.545-
 251  0.778  0.278  0.545-
 252  0.778  0.611  0.545-
 253  0.340  0.487  0.585- 254 1.25 185 1.97  59 1.97 123 2.21
 254  0.382  0.402  0.585- 253 1.25 185 1.97  59 1.97 248 2.21

  LATTYP: Found a hexagonal cell.
 ALAT       =    17.1805734625
 C/A-ratio  =     1.7461582447

  Lattice vectors:

 A1 = (   0.0000000000,   8.5902867312,  14.8788130701)
 A2 = (   0.0000000000, -17.1805734625,   0.0000000000)
 A3 = (  30.0000000000,   0.0000000000,   0.0000000000)

Analysis of symmetry for initial positions (statically):
 Subroutine PRICEL returns:
 Original cell was already a primitive cell.

 Routine SETGRP: Setting up the symmetry group for a
 hexagonal supercell.

 Subroutine GETGRP returns: Found  2 space group operations
 (whereof  1 operations were pure point group operations)
 out of a pool of 24 trial point group operations.

The static configuration has the point symmetry C_1 .
 The point group associated with its full space group is C_1h.

Analysis of symmetry for dynamics (positions and initial velocities):
 Subroutine PRICEL returns:
 Original cell was already a primitive cell.

 Routine SETGRP: Setting up the symmetry group for a
 hexagonal supercell.

 Subroutine GETGRP returns: Found  2 space group operations
 (whereof  1 operations were pure point group operations)
 out of a pool of 24 trial point group operations.

The dynamic configuration has the point symmetry C_1 .
 The point group associated with its full space group is C_1h.

 Subroutine INISYM returns: Found  2 space group operations
[...]
   0.314E+03 0.835E-01 -.149E-02   -.313E+03 -.791E-01 0.327E-03   -.870E+00 -.220E-01 -.312E-02   -.105E-03 -.561E-05 0.127E-04
   0.314E+03 0.695E-01 0.873E-01   -.313E+03 -.772E-01 -.756E-01   -.823E+00 0.389E-02 -.774E-02   -.115E-03 -.470E-05 -.217E-05
   0.314E+03 -.236E-01 -.143E+00   -.313E+03 0.392E-01 0.143E+00   -.838E+00 -.531E-02 -.850E-02   -.105E-03 0.891E-06 -.637E-05
   0.314E+03 0.839E-01 -.753E-02   -.313E+03 -.773E-01 0.300E-03   -.830E+00 -.315E-02 0.798E-02   -.105E-03 -.477E-05 0.119E-04
   0.314E+03 -.747E-01 -.698E-02   -.313E+03 0.379E-01 -.832E-02   -.861E+00 0.112E-01 0.914E-02   -.115E-03 0.158E-05 0.726E-06
   0.314E+03 0.924E-01 -.937E-01   -.313E+03 -.772E-01 0.755E-01   -.807E+00 -.163E-01 0.107E-01   -.108E-03 -.374E-05 -.975E-05
   0.314E+03 -.176E+00 0.996E-02   -.313E+03 0.157E+00 0.360E-03   -.832E+00 0.318E-01 -.693E-02   -.104E-03 0.927E-05 0.117E-04
   0.314E+03 -.300E-01 0.144E+00   -.313E+03 0.393E-01 -.143E+00   -.826E+00 0.903E-03 0.154E-02   -.117E-03 0.223E-05 -.576E-05
   0.314E+03 -.457E-01 -.124E-01   -.313E+03 0.379E-01 0.826E-02   -.833E+00 0.122E-01 0.451E-02   -.108E-03 0.166E-05 -.141E-04
   0.212E+03 0.188E+00 0.828E-01   -.212E+03 -.213E+00 -.813E-01   -.190E+00 0.233E-01 0.908E-03   -.101E-03 -.965E-05 0.167E-04
   0.212E+03 -.195E-02 -.714E-01   -.212E+03 -.178E-01 0.650E-01   -.187E+00 0.101E-01 0.852E-02   -.980E-04 -.770E-06 -.952E-05
   0.212E+03 0.721E-01 -.178E+00   -.212E+03 -.875E-01 0.200E+00   -.200E+00 0.113E-01 -.113E-01   -.974E-04 -.278E-05 0.109E-05
   0.212E+03 -.107E+00 0.358E-01   -.212E+03 0.104E+00 -.406E-01   -.149E+00 -.141E-02 -.319E-02   -.984E-04 0.352E-05 0.172E-04
   0.212E+03 -.600E-01 0.436E-01   -.212E+03 0.380E-01 -.430E-01   -.131E+00 0.176E-01 -.921E-02   -.100E-03 0.407E-05 -.123E-04
   0.212E+03 0.801E-01 -.362E-01   -.212E+03 -.838E-01 0.496E-01   -.159E+00 -.342E-03 -.116E-01   -.952E-04 -.328E-05 -.762E-05
   0.212E+03 -.856E-01 0.119E+00   -.212E+03 0.109E+00 -.123E+00   -.191E+00 -.903E-02 -.705E-02   -.102E-03 0.650E-05 0.153E-04
   0.212E+03 0.995E-02 0.142E+00   -.212E+03 -.201E-01 -.152E+00   -.137E+00 0.413E-02 -.933E-03   -.103E-03 -.107E-05 -.176E-04
   0.212E+03 -.176E+00 -.116E+00   -.212E+03 0.171E+00 0.124E+00   -.136E+00 0.360E-02 -.779E-02   -.961E-04 0.639E-05 -.431E-05
   0.108E+03 0.188E+00 0.118E+00   -.108E+03 -.188E+00 -.111E+00   0.160E+00 -.374E-02 -.792E-02   -.660E-05 -.558E-05 0.113E-04
   0.108E+03 0.545E-01 -.330E+00   -.108E+03 -.482E-01 0.344E+00   0.156E+00 0.525E-02 -.402E-02   -.621E-05 0.797E-06 -.123E-04
   0.108E+03 0.520E+00 -.197E+00   -.108E+03 -.498E+00 0.190E+00   0.191E+00 -.166E-02 0.236E-02   -.871E-05 -.968E-05 0.816E-05
   0.108E+03 -.388E+00 0.284E+00   -.108E+03 0.397E+00 -.288E+00   0.170E+00 -.695E-02 0.112E-01   -.996E-05 0.122E-04 0.907E-05
   0.108E+03 0.208E-01 0.140E+00   -.108E+03 -.376E-01 -.145E+00   0.151E+00 0.134E-01 0.787E-02   -.108E-04 0.832E-06 -.258E-04
   0.108E+03 -.221E+00 -.672E-01   -.108E+03 0.236E+00 0.899E-01   0.176E+00 -.113E-01 -.153E-01   -.791E-05 0.456E-05 0.561E-05
   0.108E+03 0.190E+00 0.475E+00   -.108E+03 -.209E+00 -.476E+00   0.184E+00 0.164E-01 0.105E-01   -.106E-04 -.543E-05 0.854E-05
   0.108E+03 -.631E-01 -.958E-01   -.108E+03 0.858E-01 0.979E-01   0.180E+00 -.181E-01 0.354E-02   -.868E-05 -.177E-05 -.184E-04
   0.109E+03 -.227E+00 -.261E+00   -.109E+03 0.264E+00 0.298E+00   0.198E+00 -.188E-01 -.208E-01   -.863E-05 0.558E-05 0.122E-04
   0.483E+01 -.324E+00 0.415E-01   -.482E+01 0.282E+00 -.675E-01   -.143E-01 0.304E-01 0.229E-01   -.337E-04 0.527E-05 0.927E-06
   0.536E+01 0.626E+00 -.642E+00   -.535E+01 -.632E+00 0.636E+00   -.430E-02 0.245E-02 0.392E-02   -.352E-04 -.362E-06 -.151E-04
   0.512E+01 0.618E+00 0.165E-01   -.516E+01 -.633E+00 0.384E-03   0.256E-01 0.226E-01 -.118E-01   -.357E-04 -.563E-05 0.147E-04
   0.599E+01 -.345E+00 0.127E+01   -.600E+01 0.354E+00 -.126E+01   0.337E-02 -.719E-02 0.573E-02   -.313E-04 0.362E-05 -.338E-05
   0.484E+01 -.325E+00 -.613E-01   -.482E+01 0.282E+00 0.673E-01   -.150E-01 0.305E-01 -.394E-02   -.397E-04 0.649E-06 -.214E-04
   0.644E+01 -.143E+01 -.134E-01   -.646E+01 0.144E+01 0.482E-03   0.237E-01 -.229E-01 0.103E-01   -.313E-04 0.831E-05 0.182E-04
   0.533E+01 0.636E+00 0.639E+00   -.535E+01 -.632E+00 -.636E+00   0.712E-02 -.587E-02 -.485E-02   -.329E-04 -.111E-04 -.211E-05
   0.599E+01 -.344E+00 -.128E+01   -.600E+01 0.354E+00 0.126E+01   0.454E-02 -.773E-02 0.576E-02   -.305E-04 -.121E-05 -.998E-05
   0.812E+01 0.806E+00 -.683E-02   -.812E+01 -.823E+00 0.477E-03   -.145E-01 0.135E-01 0.437E-02   -.268E-04 -.682E-05 0.198E-04
   -.982E+02 -.472E+00 0.564E+00   0.984E+02 0.491E+00 -.586E+00   -.159E+00 -.234E-01 0.228E-01   -.227E-05 0.886E-05 -.988E-05
   -.985E+02 0.103E+01 -.562E+00   0.986E+02 -.105E+01 0.591E+00   -.160E+00 0.254E-01 -.325E-01   -.953E-05 0.269E-05 -.119E-04
   -.981E+02 -.138E+01 0.441E+00   0.983E+02 0.138E+01 -.478E+00   -.148E+00 -.140E-01 0.386E-01   -.453E-05 0.179E-05 0.148E-04
   -.977E+02 0.330E+00 0.204E+01   0.979E+02 -.334E+00 -.207E+01   -.172E+00 0.775E-02 0.605E-02   -.213E-05 -.340E-05 -.115E-04
   -.965E+02 -.261E+01 -.189E+01   0.966E+02 0.262E+01 0.191E+01   -.133E+00 -.231E-01 -.178E-01   0.304E-05 -.361E-05 -.868E-05
   -.907E+02 -.246E+01 0.271E+01   0.908E+02 0.242E+01 -.269E+01   -.173E+00 0.240E-01 -.202E-01   0.164E-04 0.155E-05 0.231E-04
   -.985E+02 0.160E+00 -.812E+00   0.987E+02 -.165E+00 0.793E+00   -.161E+00 0.266E-03 -.456E-02   -.221E-05 -.399E-05 -.106E-04
   -.934E+02 0.168E+01 -.379E+01   0.936E+02 -.169E+01 0.378E+01   -.189E+00 -.483E-04 0.578E-02   0.106E-04 0.208E-05 -.505E-05
   -.954E+02 0.355E+01 0.133E+01   0.955E+02 -.356E+01 -.134E+01   -.120E+00 0.346E-01 0.204E-01   0.614E-05 -.537E-05 0.176E-04
   -.206E+03 0.242E+00 0.154E+01   0.205E+03 -.269E+00 -.151E+01   0.148E+00 0.183E-01 -.352E-01   0.109E-03 0.642E-05 -.132E-04
   -.205E+03 -.273E+01 -.892E+00   0.205E+03 0.276E+01 0.905E+00   0.193E+00 -.232E-01 -.161E-01   0.106E-03 -.662E-05 -.111E-05
   -.202E+03 -.601E+01 0.438E+01   0.202E+03 0.603E+01 -.440E+01   0.225E+00 -.157E-01 0.892E-02   0.117E-03 0.208E-05 0.150E-04
   -.205E+03 -.944E+00 -.114E+01   0.205E+03 0.970E+00 0.119E+01   0.180E+00 -.232E-01 -.437E-01   0.113E-03 -.113E-04 -.191E-04
   -.184E+03 -.948E+01 -.102E+02   0.184E+03 0.945E+01 0.101E+02   0.355E+00 0.187E-02 0.454E-01   0.946E-04 0.357E-05 0.161E-04
   -.195E+03 0.522E+01 0.113E+02   0.195E+03 -.515E+01 -.113E+02   0.125E+00 -.607E-01 0.324E-02   0.122E-03 -.490E-06 0.252E-04
   -.204E+03 0.734E+00 -.430E+01   0.204E+03 -.746E+00 0.429E+01   0.127E+00 0.162E-01 0.225E-01   0.114E-03 0.595E-05 -.215E-04
   -.200E+03 0.897E+01 -.328E+01   0.200E+03 -.901E+01 0.334E+01   0.255E+00 0.745E-01 -.562E-01   0.112E-03 0.126E-04 0.599E-05
   -.205E+03 0.200E+01 0.110E+01   0.205E+03 -.202E+01 -.111E+01   0.150E+00 0.300E-01 0.619E-02   0.114E-03 0.365E-05 0.101E-04
   -.312E+03 -.164E+01 -.464E+00   0.311E+03 0.165E+01 0.458E+00   0.826E+00 -.167E-01 -.143E-03   0.910E-04 -.800E-05 -.130E-04
   -.307E+03 -.217E+02 -.264E-01   0.306E+03 0.219E+02 0.125E-02   0.913E+00 -.208E+00 0.249E-01   0.636E-04 0.183E-04 0.998E-05
   -.309E+03 -.439E+01 0.148E+02   0.308E+03 0.442E+01 -.149E+02   0.857E+00 -.278E-01 0.162E-01   0.907E-04 0.453E-05 0.732E-05
   -.309E+03 -.443E+01 -.148E+02   0.308E+03 0.442E+01 0.148E+02   0.856E+00 -.117E-01 -.251E-01   0.751E-04 -.166E-05 -.833E-05
   -.235E+03 0.940E+02 -.205E-01   0.231E+03 -.964E+02 0.907E-02   0.266E+01 0.115E+01 -.642E-01   -.244E-03 -.348E-03 -.365E-05
   -.311E+03 0.508E+01 0.532E+01   0.310E+03 -.510E+01 -.533E+01   0.850E+00 0.391E-01 0.161E-01   0.945E-04 -.645E-05 0.454E-05
[...]
   -.206E+03 0.103E-04 -.866E+00   0.206E+03 0.477E-04 0.864E+00   0.117E+00 0.390E-17 -.905E-02   0.115E-03 0.905E-08 -.836E-05
   -.201E+03 0.498E+01 -.691E+01   0.201E+03 -.498E+01 0.687E+01   0.194E+00 0.208E-01 0.204E-01   0.115E-03 0.935E-05 -.194E-04
   -.203E+03 0.627E+01 0.947E+00   0.203E+03 -.629E+01 -.939E+00   0.154E+00 -.115E-01 -.205E-01   0.112E-03 0.501E-05 0.121E-04
   -.312E+03 0.955E-04 0.493E+01   0.311E+03 -.815E-04 -.492E+01   0.839E+00 0.173E-17 -.752E-02   0.966E-04 0.256E-07 -.322E-05
   -.311E+03 -.812E+01 -.350E+01   0.310E+03 0.811E+01 0.347E+01   0.836E+00 0.134E-02 0.262E-01   0.788E-04 -.981E-05 -.393E-05
   -.303E+03 -.232E+02 0.185E+02   0.302E+03 0.228E+02 -.182E+02   0.662E+00 0.328E+00 -.245E+00   0.615E-04 0.255E-04 -.152E-04
   -.312E+03 -.368E+00 -.239E+01   0.311E+03 0.360E+00 0.240E+01   0.863E+00 -.717E-03 -.131E-01   0.938E-04 -.835E-05 -.101E-04
   -.278E+03 -.545E-04 -.627E+02   0.275E+03 0.138E-03 0.651E+02   0.203E+01 -.111E-15 -.175E+01   -.721E-04 -.457E-07 0.219E-03
   -.303E+03 0.232E+02 0.185E+02   0.302E+03 -.228E+02 -.182E+02   0.662E+00 -.328E+00 -.245E+00   0.615E-04 -.256E-04 -.152E-04
   -.312E+03 0.367E+00 -.239E+01   0.311E+03 -.360E+00 0.240E+01   0.863E+00 0.717E-03 -.131E-01   0.938E-04 0.832E-05 -.102E-04
   -.311E+03 0.812E+01 -.350E+01   0.310E+03 -.811E+01 0.347E+01   0.836E+00 -.134E-02 0.262E-01   0.788E-04 0.986E-05 -.395E-05
   -.312E+03 -.480E-04 0.110E+01   0.311E+03 0.213E-04 -.114E+01   0.836E+00 0.104E-16 0.357E-01   0.943E-04 0.418E-07 0.688E-05
   -.683E+03 -.725E-02 0.270E+03   0.703E+03 0.731E-03 -.333E+03   -.188E+02 -.178E-14 0.499E+02   -.474E-04 -.122E-06 -.231E-02
   -.681E+03 0.164E-03 -.271E+03   0.702E+03 -.857E-03 0.334E+03   -.206E+02 0.000E+00 -.493E+02   -.978E-04 0.760E-08 0.190E-02
   0.336E+02 -.595E-03 -.264E+00   0.284E-11 -.570E-13 0.000E+00   -.334E+02 -.242E-14 0.259E+00   -.303E-02 -.115E-06 -.410E-03

 POSITION                                       TOTAL-FORCE (eV/Angst)
      2.36204    -11.45372     -6.61281         0.120689     -0.017643     -0.004234
      2.36204    -14.31714    -11.57241         0.100225     -0.003733      0.004004
      2.36204     -8.59029     -1.65320         0.097941      0.010123     -0.008553
      2.36204    -17.18057     -6.61281         0.101008      0.003519      0.000736
      2.36204    -20.04400    -11.57241         0.101811     -0.025689     -0.006194
      2.36204    -14.31714     -1.65320         0.093791     -0.000959     -0.007520
      2.36204     -5.72686     -6.61281         0.091703      0.012727      0.003408
      2.36204     -8.59029    -11.57241         0.087200      0.010034      0.002305
      2.36204     -2.86343     -1.65320         0.096893      0.004385      0.000398
      4.71078    -14.31714     -8.26601         0.042455     -0.001912      0.002502
      4.71078    -17.18057    -13.22561         0.048363     -0.009798      0.002182
      4.71078    -11.45372     -3.30640         0.047813     -0.004394      0.010364
      4.71078    -20.04400     -8.26601         0.040177     -0.004693     -0.007965
      4.71078    -22.90743    -13.22561         0.051796     -0.004232     -0.008600
      4.71078    -17.18057     -3.30640         0.051520     -0.004061      0.001919
      4.71078     -8.59029     -8.26601         0.055281      0.014151     -0.011111
      4.71078    -11.45372    -13.22561         0.037413     -0.006169     -0.010229
      4.71078     -5.72686     -3.30640         0.041882     -0.000726      0.000546
      7.01272    -17.18057     -9.91921         0.022509     -0.004169     -0.000901
      7.01272    -11.45372      0.00000         0.023733      0.011475      0.010728
      7.01272    -14.31714     -4.95960         0.027482      0.019631     -0.004650
      7.01272     -5.72686     -9.91921         0.017584      0.001773      0.007644
      7.01272      0.00000      0.00000         0.018496     -0.003448      0.002690
      7.01272     -2.86343     -4.95960         0.018490      0.003863      0.007421
      7.01272    -11.45372     -9.91921         0.005259     -0.002874      0.009964
      7.01272     -5.72686      0.00000         0.011200      0.004749      0.005671
      7.01272     -8.59029     -4.95960         0.008659      0.017379      0.015866
      9.35192    -20.04400    -11.57241        -0.001798     -0.011501     -0.003117
      9.35192    -14.31714     -1.65320        -0.000560     -0.003078     -0.001575
      9.35192    -17.18057     -6.61281        -0.012907      0.007278      0.005097
      9.35192     -8.59029    -11.57241         0.002102      0.001741      0.012945
      9.35192     -2.86343     -1.65320         0.003762     -0.011953      0.002055
      9.35192     -5.72686     -6.61281        -0.002479     -0.015748     -0.002549
      9.35192    -14.31714    -11.57241        -0.016123     -0.001901     -0.002474
      9.35192     -8.59029     -1.65320        -0.003329      0.002327     -0.016709
      9.35192    -11.45372     -6.61281        -0.014661     -0.003865     -0.001926
     11.69112    -22.90743    -13.22561        -0.010513     -0.004454      0.000641
     11.69112    -17.18057     -3.30640        -0.019712      0.005356     -0.003444
     11.69112    -20.04400     -8.26601         0.006213     -0.014037      0.000864
     11.69112    -11.45372    -13.22561        -0.017473      0.003868     -0.016114
     11.69112     -5.72686     -3.30640        -0.012911     -0.011963     -0.001323
     11.69112     -8.59029     -8.26601        -0.039484     -0.017131      0.004122
     11.69112    -17.18057    -13.22561        -0.027206     -0.005554     -0.023654
     11.69112    -11.45372     -3.30640        -0.017625     -0.009811     -0.003381
     11.69112    -14.31714     -8.26601         0.009230      0.024940      0.009232
     13.99306      0.00000      0.00000        -0.052565     -0.008078     -0.009762
     13.99306     -2.86343     -4.95960        -0.024694      0.004282     -0.002450
     13.99306     -5.72686     -9.91921        -0.038684     -0.000654     -0.004403
     13.99306     -5.72686      0.00000        -0.024725      0.002533      0.004610
     13.99306     -8.59029     -4.95960         0.000838     -0.029758     -0.000374
     13.99306    -11.45372     -9.91921        -0.087958      0.009757     -0.021426
     13.99306    -11.45372      0.00000        -0.049920      0.004032      0.010833
     13.99306    -14.31714     -4.95960        -0.025383      0.038075     -0.003108
     13.99306    -17.18057     -9.91921        -0.055666      0.004658     -0.007115
     16.34180     -2.86343     -1.65320        -0.102507     -0.009348     -0.006112
     16.34180     -5.72686     -6.61281        -0.051157     -0.060781     -0.000301
     16.34180     -8.59029    -11.57241        -0.067853      0.001628     -0.033641
     16.34180     -8.59029     -1.65320        -0.090141     -0.017536      0.031454
     16.34180    -11.45372     -6.61281        -0.690456     -1.262829     -0.075487
     16.34180    -14.31714    -11.57241        -0.083757      0.016771      0.008341
[...]
     13.99306    -10.02200     -7.43941         0.142250      0.000000      0.051667
     13.99306    -18.61229    -12.39901        -0.052183      0.000000     -0.011768
     13.99306    -12.88543     -2.47980        -0.036320      0.015387     -0.019062
     13.99306    -15.74886     -7.43941        -0.054590     -0.026742     -0.011989
     16.34180    -10.02200    -14.05221        -0.103232      0.000000      0.009658
     16.34180     -4.29514     -4.13300        -0.087656     -0.004877     -0.004715
     16.34180     -7.15857     -9.09261        -0.144098      0.005981     -0.016717
     16.34180    -15.74886    -14.05221        -0.099628     -0.008118     -0.005531
     16.34180    -10.02200     -4.13300        -0.468808      0.000000      0.629555
     16.34180    -12.88543     -9.09261        -0.144098     -0.005981     -0.016717
     16.34180    -21.47572    -14.05221        -0.099628      0.008118     -0.005531
     16.34180    -15.74886     -4.13300        -0.087656      0.004877     -0.004715
     16.34180    -18.61229     -9.09261        -0.104473      0.000000     -0.001314
     17.54000    -10.02200     -7.24000         1.150931      0.000000    -13.548836
     17.54000    -10.02200     -5.98600         0.781416      0.000000     13.668833
    total drift:                                0.175233     -0.000595     -0.005319

  FREE ENERGIE OF THE ION-ELECTRON SYSTEM (eV)
  free  energy   TOTEN  =     -1002.37070360 eV

  energy  without entropy=    -1002.30516332  energy(sigma->0) =    -1002.33793346

 stress matrix after NEB project (eV)
    -62.84789     -0.00000      0.00060
     -0.00000    -75.93166     -0.00000
      0.00060     -0.00000    -75.92418
  FORCES: max atom, RMS    13.691151    1.220687
  FORCE total and by dimension   19.454551   13.668833
  Stress total and by dimension  124.418466   75.931658