 vasp.6.2.1 16May21 (build Jun 16 2021 03:23:30) complex
 executed on             LinuxPGI date 2022.04.23  23:03:39

 INCAR:
   SYSTEM = NiAl
   ISTART = 0
   EDIFF = 1E-7
   NELMIN = 6
   IVDW = 12
   LWAVE = .FALSE.
   LCHARG = .FALSE.
   LREAL = Auto
   NCORE = 1
   LPLANE = .TRUE.
   ENCUT = 360.00 eV
   ISMEAR = 0
   SIGMA = 0.05

 POTCAR:    PAW Ni_GW 31Mar2010
 POTCAR:    PAW Ni_GW 31Mar2010
   VRHFIN =Ni:

   TITEL  = PAW Ni_GW 31Mar2010
   POMASS =   58.690; ZVAL   =   10.000    mass and valenz
   ENMAX  =  357.323; ENMIN  =  267.992 eV

 Optimization of the real space projectors (new method)

 maximal supplied QI-value         = 16.25
 optimisation between [QCUT,QGAM] = [  9.59, 19.34] = [ 25.75,104.73] Ry
 Optimized for a Real-space Cutoff    1.46 Angstroem

   l    n(q)    QCUT    max X(q) W(low)/X(q) W(high)/X(q)  e(spline)
   2      7     9.588    94.285    0.33E-03    0.50E-03    0.16E-06
   2      7     9.588    92.549    0.33E-03    0.50E-03    0.16E-06
   0      8     9.588    17.118    0.28E-04    0.17E-03    0.57E-07
   0      8     9.588     8.062    0.24E-04    0.17E-03    0.61E-07
   1      8     9.588     4.910    0.48E-03    0.22E-03    0.79E-07
   1      8     9.588     3.344    0.32E-03    0.14E-03    0.56E-07
   3      7     9.588     5.513    0.55E-04    0.16E-03    0.12E-06
  PAW Ni_GW 31Mar2010                   :

 POSCAR: New structure
  positions in cartesian coordinates
 exchange correlation table for  LEXCH =        8
   RHO(1)=    0.500       N(1)  =     2000
   RHO(2)=  100.500       N(2)  =     4000

 VTST: version 4.1, (05/19/21)

 CHAIN: initializing optimizer

 OPT: Using VASP Dynamics algorithm
 CHAIN: Read ICHAIN             0

 POSCAR: New structure
  positions in cartesian coordinates

 ion  position               nearest neighbor table
   1  0.000  0.000  0.000-   2 2.52   3 2.52   4 2.52  14 2.52  15 2.52  50 2.52  52 2.52  62 2.52
                           195 2.52 196 2.52 207 2.52 244 2.52
   2  0.000  0.125  0.125-   1 2.52   3 2.52   4 2.52   5 2.52   8 2.52  17 2.52  19 2.52  21 2.52
                           195 2.52 196 2.52 200 2.52 211 2.52
   3  0.125  0.000  0.125-   1 2.52   2 2.52   4 2.52   5 2.52   8 2.52  50 2.52  52 2.52  56 2.52
                            65 2.52  66 2.52  69 2.52 114 2.52
   4  0.125  0.125  0.000-   1 2.52   2 2.52   3 2.52  14 2.52  15 2.52  17 2.52  19 2.52  31 2.52
                            65 2.52  66 2.52  78 2.52  81 2.52
   5  0.000  0.000  0.250-   2 2.52   3 2.52   6 2.52   7 2.52   8 2.52  50 2.52  54 2.52  56 2.52
                           195 2.52 199 2.52 200 2.52 248 2.52
   6  0.000  0.125  0.375-   5 2.52   7 2.52   8 2.52   9 2.52  12 2.52  21 2.52  23 2.52  25 2.52
                           199 2.52 200 2.52 204 2.52 215 2.52
   7  0.125  0.000  0.375-   5 2.52   6 2.52   8 2.52   9 2.52  12 2.52  54 2.52  56 2.52  60 2.52
                            69 2.52  70 2.52  73 2.52 118 2.52
   8  0.125  0.125  0.250-   2 2.52   3 2.52   5 2.52   6 2.52   7 2.52  19 2.52  21 2.52  23 2.52
                            66 2.52  69 2.52  70 2.52  85 2.52
   9  0.000  0.000  0.500-   6 2.52   7 2.52  10 2.52  11 2.52  12 2.52  54 2.52  58 2.52  60 2.52
                           199 2.52 203 2.52 204 2.52 252 2.52
  10  0.000  0.125  0.625-   9 2.52  11 2.52  12 2.52  13 2.52  16 2.52  25 2.52  27 2.52  29 2.52
                           203 2.52 204 2.52 208 2.52 219 2.52
  11  0.125  0.000  0.625-   9 2.52  10 2.52  12 2.52  13 2.52  16 2.52  58 2.52  60 2.52  64 2.52
                            73 2.52  74 2.52  77 2.52 122 2.52
  12  0.125  0.125  0.500-   6 2.52   7 2.52   9 2.52  10 2.52  11 2.52  23 2.52  25 2.52  27 2.52
                            70 2.52  73 2.52  74 2.52  89 2.52
  13  0.000  0.000  0.750-  10 2.52  11 2.52  14 2.52  15 2.52  16 2.52  58 2.52  62 2.52  64 2.52
                           203 2.52 207 2.52 208 2.52 256 2.52
  14  0.000  0.125  0.875-   1 2.52   4 2.52  13 2.52  15 2.52  16 2.52  17 2.52  29 2.52  31 2.52
                           196 2.52 207 2.52 208 2.52 223 2.52
  15  0.125  0.000  0.875-   1 2.52   4 2.52  13 2.52  14 2.52  16 2.52  52 2.52  62 2.52  64 2.52
                            65 2.52  77 2.52  78 2.52 126 2.52
  16  0.125  0.125  0.750-  10 2.52  11 2.52  13 2.52  14 2.52  15 2.52  27 2.52  29 2.52  31 2.52
                            74 2.52  77 2.52  78 2.52  93 2.52
  17  0.000  0.250  0.000-   2 2.52   4 2.52  14 2.52  18 2.52  19 2.52  20 2.52  30 2.52  31 2.52
                           196 2.52 211 2.52 212 2.52 223 2.52
  18  0.000  0.375  0.125-  17 2.52  19 2.52  20 2.52  21 2.52  24 2.52  33 2.52  35 2.52  37 2.52
                           211 2.52 212 2.52 216 2.52 227 2.52
  19  0.125  0.250  0.125-   2 2.52   4 2.52   8 2.52  17 2.52  18 2.52  20 2.52  21 2.52  24 2.52
                            66 2.52  81 2.52  82 2.52  85 2.52
  20  0.125  0.375  0.000-  17 2.52  18 2.52  19 2.52  30 2.52  31 2.52  33 2.52  35 2.52  47 2.52
                            81 2.52  82 2.52  94 2.52  97 2.52
  21  0.000  0.250  0.250-   2 2.52   6 2.52   8 2.52  18 2.52  19 2.52  22 2.52  23 2.52  24 2.52
                           200 2.52 211 2.52 215 2.52 216 2.52
  22  0.000  0.375  0.375-  21 2.52  23 2.52  24 2.52  25 2.52  28 2.52  37 2.52  39 2.52  41 2.52
                           215 2.52 216 2.52 220 2.52 231 2.52
  23  0.125  0.250  0.375-   6 2.52   8 2.52  12 2.52  21 2.52  22 2.52  24 2.52  25 2.52  28 2.52
                            70 2.52  85 2.52  86 2.52  89 2.52
  24  0.125  0.375  0.250-  18 2.52  19 2.52  21 2.52  22 2.52  23 2.52  35 2.52  37 2.52  39 2.52
                            82 2.52  85 2.52  86 2.52 101 2.52
  25  0.000  0.250  0.500-   6 2.52  10 2.52  12 2.52  22 2.52  23 2.52  26 2.52  27 2.52  28 2.52
                           204 2.52 215 2.52 219 2.52 220 2.52
  26  0.000  0.375  0.625-  25 2.52  27 2.52  28 2.52  29 2.52  32 2.52  41 2.52  43 2.52  45 2.52
                           219 2.52 220 2.52 224 2.52 235 2.52
  27  0.125  0.250  0.625-  10 2.52  12 2.52  16 2.52  25 2.52  26 2.52  28 2.52  29 2.52  32 2.52
                            74 2.52  89 2.52  90 2.52  93 2.52
  28  0.125  0.375  0.500-  22 2.52  23 2.52  25 2.52  26 2.52  27 2.52  39 2.52  41 2.52  43 2.52
                            86 2.52  89 2.52  90 2.52 105 2.52
  29  0.000  0.250  0.750-  10 2.52  14 2.52  16 2.52  26 2.52  27 2.52  30 2.52  31 2.52  32 2.52
                           208 2.52 219 2.52 223 2.52 224 2.52
  30  0.000  0.375  0.875-  17 2.52  20 2.52  29 2.52  31 2.52  32 2.52  33 2.52  45 2.52  47 2.52
                           212 2.52 223 2.52 224 2.52 239 2.52
  31  0.125  0.250  0.875-   4 2.52  14 2.52  16 2.52  17 2.52  20 2.52  29 2.52  30 2.52  32 2.52
                            78 2.52  81 2.52  93 2.52  94 2.52
  32  0.125  0.375  0.750-  26 2.52  27 2.52  29 2.52  30 2.52  31 2.52  43 2.52  45 2.52  47 2.52
                            90 2.52  93 2.52  94 2.52 109 2.52
  33  0.000  0.500  0.000-  18 2.52  20 2.52  30 2.52  34 2.52  35 2.52  36 2.52  46 2.52  47 2.52
                           212 2.52 227 2.52 228 2.52 239 2.52
  34  0.000  0.625  0.125-  33 2.52  35 2.52  36 2.52  37 2.52  40 2.52  49 2.52  51 2.52  53 2.52
                           227 2.52 228 2.52 232 2.52 243 2.52
  35  0.125  0.500  0.125-  18 2.52  20 2.52  24 2.52  33 2.52  34 2.52  36 2.52  37 2.52  40 2.52
                            82 2.52  97 2.52  98 2.52 101 2.52
  36  0.125  0.625  0.000-  33 2.52  34 2.52  35 2.52  46 2.52  47 2.52  49 2.52  51 2.52  63 2.52
                            97 2.52  98 2.52 110 2.52 113 2.52
  37  0.000  0.500  0.250-  18 2.52  22 2.52  24 2.52  34 2.52  35 2.52  38 2.52  39 2.52  40 2.52
                           216 2.52 227 2.52 231 2.52 232 2.52
  38  0.000  0.625  0.375-  37 2.52  39 2.52  40 2.52  41 2.52  44 2.52  53 2.52  55 2.52  57 2.52
                           231 2.52 232 2.52 236 2.52 247 2.52
  39  0.125  0.500  0.375-  22 2.52  24 2.52  28 2.52  37 2.52  38 2.52  40 2.52  41 2.52  44 2.52
                            86 2.52 101 2.52 102 2.52 105 2.52
  40  0.125  0.625  0.250-  34 2.52  35 2.52  37 2.52  38 2.52  39 2.52  51 2.52  53 2.52  55 2.52
                            98 2.52 101 2.52 102 2.52 117 2.52
  41  0.000  0.500  0.500-  22 2.52  26 2.52  28 2.52  38 2.52  39 2.52  42 2.52  43 2.52  44 2.52
                           220 2.52 231 2.52 235 2.52 236 2.52
  42  0.000  0.625  0.625-  41 2.52  43 2.52  44 2.52  45 2.52  48 2.52  57 2.52  59 2.52  61 2.52
                           235 2.52 236 2.52 240 2.52 251 2.52
  43  0.125  0.500  0.625-  26 2.52  28 2.52  32 2.52  41 2.52  42 2.52  44 2.52  45 2.52  48 2.52
                            90 2.52 105 2.52 106 2.52 109 2.52
  44  0.125  0.625  0.500-  38 2.52  39 2.52  41 2.52  42 2.52  43 2.52  55 2.52  57 2.52  59 2.52
                           102 2.52 105 2.52 106 2.52 121 2.52
  45  0.000  0.500  0.750-  26 2.52  30 2.52  32 2.52  42 2.52  43 2.52  46 2.52  47 2.52  48 2.52
                           224 2.52 235 2.52 239 2.52 240 2.52
  46  0.000  0.625  0.875-  33 2.52  36 2.52  45 2.52  47 2.52  48 2.52  49 2.52  61 2.52  63 2.52
                           228 2.52 239 2.52 240 2.52 255 2.52
  47  0.125  0.500  0.875-  20 2.52  30 2.52  32 2.52  33 2.52  36 2.52  45 2.52  46 2.52  48 2.52
                            94 2.52  97 2.52 109 2.52 110 2.52
  48  0.125  0.625  0.750-  42 2.52  43 2.52  45 2.52  46 2.52  47 2.52  59 2.52  61 2.52  63 2.52
                           106 2.52 109 2.52 110 2.52 125 2.52
  49  0.000  0.750  0.000-  34 2.52  36 2.52  46 2.52  50 2.52  51 2.52  52 2.52  62 2.52  63 2.52
                           228 2.52 243 2.52 244 2.52 255 2.52
  50  0.000  0.875  0.125-   1 2.52   3 2.52   5 2.52  49 2.52  51 2.52  52 2.52  53 2.52  56 2.52
                           195 2.52 243 2.52 244 2.52 248 2.52
  51  0.125  0.750  0.125-  34 2.52  36 2.52  40 2.52  49 2.52  50 2.52  52 2.52  53 2.52  56 2.52
                            98 2.52 113 2.52 114 2.52 117 2.52
  52  0.125  0.875  0.000-   1 2.52   3 2.52  15 2.52  49 2.52  50 2.52  51 2.52  62 2.52  63 2.52
                            65 2.52 113 2.52 114 2.52 126 2.52
  53  0.000  0.750  0.250-  34 2.52  38 2.52  40 2.52  50 2.52  51 2.52  54 2.52  55 2.52  56 2.52
                           232 2.52 243 2.52 247 2.52 248 2.52
  54  0.000  0.875  0.375-   5 2.52   7 2.52   9 2.52  53 2.52  55 2.52  56 2.52  57 2.52  60 2.52
                           199 2.52 247 2.52 248 2.52 252 2.52
  55  0.125  0.750  0.375-  38 2.52  40 2.52  44 2.52  53 2.52  54 2.52  56 2.52  57 2.52  60 2.52
                           102 2.52 117 2.52 118 2.52 121 2.52
  56  0.125  0.875  0.250-   3 2.52   5 2.52   7 2.52  50 2.52  51 2.52  53 2.52  54 2.52  55 2.52
                            69 2.52 114 2.52 117 2.52 118 2.52
  57  0.000  0.750  0.500-  38 2.52  42 2.52  44 2.52  54 2.52  55 2.52  58 2.52  59 2.52  60 2.52
                           236 2.52 247 2.52 251 2.52 252 2.52
  58  0.000  0.875  0.625-   9 2.52  11 2.52  13 2.52  57 2.52  59 2.52  60 2.52  61 2.52  64 2.52
[...]
   0.574E-13 0.357E-12 -.442E-12   -.177E-11 -.352E-12 -.369E-12   -.280E-21 0.172E-20 0.779E-20   -.836E-12 -.130E-11 -.873E-12
   0.156E-12 0.176E-12 -.253E-12   -.515E-13 -.382E-12 -.272E-12   0.281E-20 -.201E-20 -.328E-20   -.400E-12 0.610E-12 -.530E-13
   0.421E-12 0.375E-12 0.118E-11   -.220E-11 -.888E-14 -.167E-12   0.213E-20 0.120E-20 -.318E-20   0.785E-12 -.144E-11 0.468E-12
   0.129E-12 0.126E-12 0.128E-11   -.170E-11 -.188E-12 -.206E-12   0.302E-20 0.127E-20 -.832E-21   0.870E-12 0.749E-12 -.108E-11
   0.222E-12 0.592E-12 0.919E-13   -.149E-11 -.406E-12 -.256E-12   0.355E-20 -.854E-21 -.503E-20   -.323E-12 -.210E-11 0.838E-12
   -.783E-13 0.200E-12 0.752E-12   -.666E-12 -.423E-12 -.234E-12   0.318E-21 0.169E-20 0.953E-20   0.125E-12 0.453E-12 0.117E-11
   0.674E-12 0.459E-12 0.203E-11   -.138E-11 -.170E-12 -.924E-13   0.133E-20 0.165E-20 -.127E-20   0.801E-12 -.172E-11 0.108E-11
   0.644E-12 0.104E-12 0.140E-11   -.183E-11 -.227E-12 0.427E-13   0.954E-21 0.159E-20 -.523E-21   0.924E-12 0.542E-12 0.895E-12
   -.173E-12 0.684E-12 0.132E-11   -.700E-12 -.330E-12 -.306E-12   -.179E-20 0.195E-20 0.102E-19   -.234E-12 -.187E-11 0.811E-12
   -.521E-12 0.263E-12 0.163E-11   -.131E-12 -.234E-12 -.160E-12   -.475E-20 -.741E-21 -.529E-20   -.138E-12 0.499E-12 0.352E-12
   0.143E-12 0.550E-12 0.291E-11   -.152E-11 -.103E-12 -.426E-13   0.138E-21 -.709E-21 0.413E-20   0.772E-12 -.129E-11 0.992E-13
   0.355E-12 0.150E-12 0.249E-11   -.149E-11 -.462E-13 0.568E-13   0.400E-21 -.953E-21 0.296E-20   0.100E-11 0.664E-12 0.910E-12
   -.530E-12 0.555E-12 0.184E-11   -.162E-11 -.483E-12 -.188E-12   -.514E-20 -.220E-21 -.340E-20   -.477E-12 -.121E-11 -.619E-12
   -.294E-12 0.202E-12 0.184E-11   -.497E-12 -.327E-12 0.178E-13   -.354E-21 0.000E+00 0.868E-20   -.694E-12 0.736E-12 -.107E-11
   -.128E-12 0.370E-12 0.362E-11   -.136E-11 -.146E-12 -.171E-12   -.930E-21 0.130E-21 0.127E-20   0.848E-12 -.992E-12 -.120E-11
   -.170E-12 0.226E-12 0.334E-11   -.135E-11 -.178E-12 0.577E-13   -.937E-21 0.794E-22 0.174E-20   0.103E-11 0.737E-12 -.638E-12
   0.427E-13 -.153E-12 -.476E-12   -.156E-11 -.313E-12 -.242E-12   0.306E-20 -.136E-20 -.438E-20   -.834E-12 0.189E-11 -.105E-11
   0.365E-12 -.115E-12 -.355E-12   -.108E-11 -.679E-12 -.212E-12   -.147E-20 0.159E-20 0.741E-20   -.896E-12 0.231E-11 0.207E-12
   0.541E-12 -.227E-12 0.121E-11   -.795E-12 -.790E-13 0.195E-13   0.147E-20 0.120E-20 -.186E-20   0.720E-12 0.189E-11 0.154E-12
   0.243E-12 0.815E-12 0.113E-11   -.178E-12 -.366E-12 -.844E-13   0.124E-20 0.169E-20 -.704E-21   0.643E-12 0.171E-11 -.848E-12
   0.126E-12 -.310E-12 0.645E-13   0.249E-12 -.242E-12 -.637E-14   -.220E-20 0.173E-20 0.611E-20   -.874E-13 0.221E-11 0.647E-12
   -.983E-13 -.271E-12 0.785E-12   -.108E-11 -.344E-12 -.164E-12   -.494E-20 -.106E-20 -.191E-20   0.443E-13 0.249E-11 0.804E-12
   0.665E-12 -.207E-12 0.195E-11   -.508E-12 -.219E-12 -.123E-12   -.730E-21 -.100E-20 0.378E-20   0.865E-12 0.197E-11 0.120E-11
   0.888E-12 0.693E-12 0.130E-11   -.178E-13 -.380E-12 0.683E-13   -.746E-22 -.931E-21 0.563E-20   0.429E-12 0.218E-11 0.992E-12
   -.411E-12 -.267E-12 0.142E-11   0.557E-12 -.259E-12 -.208E-12   -.488E-20 -.213E-20 -.508E-20   0.229E-12 0.182E-11 0.806E-12
   -.738E-12 -.247E-12 0.180E-11   -.943E-12 -.192E-13 -.154E-12   -.553E-21 0.116E-20 0.508E-20   0.349E-13 0.196E-11 0.542E-13
   -.266E-13 -.172E-12 0.297E-11   -.751E-12 0.178E-14 0.409E-13   0.215E-21 0.416E-21 -.204E-20   0.120E-11 0.171E-11 0.117E-12
   0.368E-12 0.326E-12 0.256E-11   -.259E-12 0.302E-12 0.453E-13   -.252E-21 0.212E-21 -.565E-21   0.896E-12 0.210E-11 0.707E-12
   -.535E-12 -.762E-13 0.172E-11   -.982E-12 -.231E-12 -.178E-13   -.693E-21 0.715E-21 0.657E-20   -.461E-12 0.154E-11 -.368E-12
   -.241E-12 -.239E-14 0.173E-11   -.909E-12 -.170E-12 -.346E-13   0.367E-20 -.106E-20 -.709E-20   -.974E-12 0.170E-11 -.740E-12
   -.145E-12 0.125E-11 0.478E-11   -.412E-12 0.298E-12 -.409E-13   0.231E-20 0.210E-20 -.111E-20   0.101E-11 0.162E-11 -.115E-11
   -.250E-12 0.192E-11 0.476E-11   -.123E-12 0.438E-12 0.533E-13   0.219E-20 0.127E-20 -.175E-20   0.115E-11 0.167E-11 -.799E-12
   0.214E-12 0.546E-12 -.550E-12   -.436E-12 -.307E-12 -.194E-12   -.318E-20 0.150E-20 0.826E-20   -.134E-11 0.940E-12 -.461E-12
   0.514E-12 0.128E-11 -.572E-12   -.726E-12 -.298E-12 -.266E-12   -.500E-20 -.318E-21 -.402E-20   -.141E-11 -.294E-12 0.945E-12
   0.699E-12 0.799E-12 0.100E-11   -.296E-12 -.808E-13 -.453E-13   0.986E-21 -.507E-21 0.392E-20   0.237E-12 0.104E-11 0.636E-12
   0.239E-12 -.214E-12 0.363E-11   -.142E-12 -.238E-12 -.888E-13   0.462E-21 -.953E-21 0.830E-21   0.509E-12 -.378E-12 -.633E-12
   0.392E-12 0.395E-12 -.948E-13   0.138E-12 -.547E-12 -.121E-12   -.468E-20 -.740E-21 -.110E-20   -.814E-12 0.160E-11 0.862E-12
   0.167E-12 0.120E-11 0.599E-12   -.147E-11 -.320E-12 -.218E-12   -.628E-21 0.116E-20 0.424E-20   -.621E-12 0.444E-13 0.736E-12
   0.879E-12 0.412E-12 0.174E-11   -.294E-12 -.542E-13 -.950E-13   -.134E-20 0.201E-21 -.529E-21   0.245E-12 0.137E-11 0.110E-11
   0.961E-12 0.209E-11 0.107E-11   0.421E-12 -.711E-13 0.427E-13   -.516E-21 0.334E-21 0.668E-21   -.325E-13 -.184E-12 0.129E-11
   -.544E-12 0.144E-12 0.142E-11   0.114E-11 -.355E-14 -.135E-12   -.403E-21 0.950E-21 0.677E-20   0.886E-13 0.163E-11 0.296E-12
   -.701E-12 0.106E-11 0.187E-11   -.124E-11 -.341E-12 -.167E-12   0.335E-20 -.741E-21 -.625E-20   -.110E-12 -.866E-13 -.483E-12
   0.135E-13 0.155E-11 0.448E-11   -.497E-12 0.675E-13 0.711E-14   0.303E-20 0.168E-20 -.296E-20   0.891E-12 0.120E-11 -.317E-12
   0.637E-12 0.345E-11 0.354E-11   0.639E-12 0.128E-12 0.426E-13   0.214E-20 0.127E-20 -.218E-20   0.247E-12 -.263E-12 0.533E-12
   -.654E-12 0.238E-12 0.209E-11   -.870E-13 0.234E-12 -.817E-13   0.279E-20 -.494E-21 -.532E-20   -.484E-12 0.110E-11 -.655E-12
   -.258E-12 0.119E-11 0.194E-11   -.114E-11 -.924E-13 0.284E-13   -.165E-20 0.529E-21 0.625E-20   -.992E-12 -.410E-12 -.814E-12
   -.118E-12 0.157E-11 0.483E-11   -.211E-12 0.528E-12 -.329E-13   0.119E-21 0.154E-20 0.106E-20   0.827E-12 0.871E-12 -.109E-11
   -.111E-12 0.297E-11 0.491E-11   0.313E-12 0.178E-12 0.426E-13   0.106E-20 0.161E-20 0.244E-21   0.799E-12 -.360E-12 -.110E-11
   0.151E-12 0.202E-11 -.438E-12   -.220E-11 -.203E-12 -.242E-12   -.485E-20 -.166E-20 -.318E-20   -.128E-11 -.168E-11 -.342E-12
   0.377E-12 0.269E-11 -.468E-12   -.102E-11 0.604E-13 -.675E-13   -.760E-21 0.159E-20 0.656E-20   -.997E-12 -.245E-11 0.754E-12
   0.575E-12 -.196E-12 0.333E-11   -.764E-13 0.166E-12 -.213E-13   0.183E-21 0.539E-22 -.192E-20   0.276E-12 -.157E-11 0.926E-12
   0.112E-12 0.332E-11 0.125E-11   -.554E-12 -.163E-12 -.568E-13   -.731E-21 0.318E-21 0.380E-22   0.680E-12 -.188E-11 -.657E-12
   0.529E-12 0.210E-11 -.160E-12   -.954E-12 -.152E-12 -.125E-12   -.887E-21 0.421E-21 0.544E-20   -.112E-11 -.186E-11 0.118E-11
   0.274E-12 0.286E-11 0.699E-12   -.131E-11 0.702E-13 -.167E-12   0.329E-20 -.127E-20 -.349E-20   -.558E-12 -.281E-11 0.919E-12
   0.902E-12 0.369E-11 0.299E-11   0.320E-12 0.435E-13 -.782E-13   0.217E-20 0.992E-21 -.151E-20   0.483E-13 -.170E-11 0.103E-11
   0.752E-12 0.248E-11 0.484E-11   -.357E-12 0.728E-13 0.163E-12   0.272E-20 0.129E-20 -.126E-20   0.431E-12 -.234E-11 0.118E-11
   -.928E-13 0.228E-11 0.127E-11   -.977E-12 0.711E-14 -.128E-12   0.248E-20 -.311E-21 -.568E-20   -.458E-12 -.174E-11 0.234E-12
   -.411E-12 0.284E-11 0.178E-11   -.142E-11 0.782E-13 0.568E-13   -.150E-20 0.318E-21 0.794E-20   -.363E-12 -.219E-11 -.262E-12
   0.318E-12 0.345E-11 0.411E-11   0.256E-12 0.782E-13 0.107E-13   0.444E-22 0.138E-20 -.197E-20   0.421E-12 -.171E-11 -.349E-12
   0.595E-12 0.472E-11 0.341E-11   -.895E-12 0.169E-12 0.185E-12   0.104E-20 0.169E-20 -.156E-20   0.414E-12 -.231E-11 0.558E-12
[...]
   0.246E-11 0.101E-10 0.550E-11   0.476E-12 0.439E-12 0.142E-12   -.224E-20 -.120E-20 0.101E-19   -.166E-11 -.198E-11 0.752E-12
   0.243E-11 0.155E-10 -.512E-11   0.159E-11 0.455E-12 -.142E-13   -.212E-20 0.212E-21 0.103E-19   -.176E-11 -.230E-11 -.554E-12
   0.132E-11 0.367E-11 0.217E-11   0.105E-11 -.249E-13 0.152E-12   0.215E-21 0.930E-21 -.438E-21   -.423E-12 -.175E-11 0.125E-12
   0.116E-11 0.156E-10 0.400E-11   0.133E-11 0.182E-12 -.135E-12   0.215E-20 -.299E-20 0.296E-20   -.331E-12 -.276E-11 0.390E-12
   0.189E-11 -.831E-11 -.748E-12   -.817E-12 0.249E-12 0.426E-13   0.258E-20 -.142E-20 -.358E-20   -.607E-12 -.178E-11 0.374E-12
   0.219E-11 -.227E-11 -.121E-10   0.161E-11 0.535E-12 0.197E-12   0.196E-20 -.142E-20 -.387E-20   -.105E-11 -.313E-11 0.721E-12
   0.986E-12 0.416E-11 0.150E-10   0.132E-11 0.128E-12 0.711E-14   0.205E-20 -.224E-20 -.539E-21   0.835E-13 -.126E-11 0.467E-13
   0.133E-11 -.224E-11 0.766E-11   0.159E-11 0.285E-13 0.171E-12   -.784E-21 0.546E-22 -.508E-20   -.477E-12 -.191E-11 0.287E-12
   0.135E-11 0.870E-11 -.661E-11   -.287E-12 0.341E-12 0.171E-12   -.744E-21 -.169E-21 0.169E-20   -.407E-12 -.144E-11 -.300E-12
   0.166E-11 -.197E-11 0.104E-10   0.191E-11 0.378E-12 0.298E-12   0.499E-22 -.106E-20 0.831E-21   -.524E-12 -.252E-11 0.381E-12
   0.164E-11 0.404E-11 -.108E-10   0.193E-11 0.171E-12 0.142E-12   -.470E-22 -.345E-21 -.601E-20   -.960E-12 -.142E-11 0.338E-12
   0.197E-11 0.151E-10 -.290E-12   0.165E-11 -.256E-12 0.199E-12   0.284E-21 0.817E-21 0.481E-20   -.136E-11 -.199E-11 -.315E-12
   0.213E-11 0.856E-11 0.138E-10   0.682E-12 0.426E-12 0.199E-12   -.530E-20 -.632E-21 -.464E-20   -.169E-11 -.166E-11 -.437E-12
   0.175E-11 0.142E-10 0.369E-11   0.165E-11 0.568E-12 0.313E-12   -.433E-20 0.199E-22 -.491E-20   -.110E-11 -.189E-11 -.404E-12
   0.221E-09 0.264E-09 0.231E-09   -.266E-12 0.158E-12 -.292E-11   -.838E-19 0.697E-19 0.705E-19   -.298E-11 -.244E-13 0.141E-10

 POSITION                                       TOTAL-FORCE (eV/Angst)
      0.00000      0.00000      0.00000         0.000000      0.000000      0.000000
      0.00000      1.78500      1.78500         0.000000      0.000000      0.000000
      1.78500      0.00000      1.78500         0.000000      0.000000      0.000000
      1.78500      1.78500      0.00000        -0.000000      0.000000     -0.000000
      0.00000      0.00000      3.57000        -0.000000     -0.000000     -0.000000
      0.00000      1.78500      5.35500        -0.000000      0.000000     -0.000000
      1.78500      0.00000      5.35500        -0.000000     -0.000000     -0.000000
      1.78500      1.78500      3.57000         0.000000     -0.000000      0.000000
      0.00000      0.00000      7.14000        -0.000000     -0.000000      0.000000
      0.00000      1.78500      8.92500        -0.000000     -0.000000      0.000000
      1.78500      0.00000      8.92500        -0.000000     -0.000000     -0.000000
      1.78500      1.78500      7.14000        -0.000000      0.000000      0.000000
      0.00000      0.00000     10.71000         0.000000      0.000000     -0.000000
      0.00000      1.78500     12.49500         0.000000      0.000000     -0.000000
      1.78500      0.00000     12.49500         0.000000      0.000000     -0.000000
      1.78500      1.78500     10.71000         0.000000      0.000000     -0.000000
      0.00000      3.57000      0.00000         0.000000      0.000000     -0.000000
      0.00000      5.35500      1.78500         0.000000      0.000000     -0.000000
      1.78500      3.57000      1.78500         0.000000      0.000000     -0.000000
      1.78500      5.35500      0.00000         0.000000      0.000000      0.000000
      0.00000      3.57000      3.57000         0.000000      0.000000     -0.000000
      0.00000      5.35500      5.35500        -0.000000     -0.000000     -0.000000
      1.78500      3.57000      5.35500         0.000000      0.000000      0.000000
      1.78500      5.35500      3.57000         0.000000      0.000000     -0.000000
      0.00000      3.57000      7.14000        -0.000000     -0.000000      0.000000
      0.00000      5.35500      8.92500         0.000000      0.000000     -0.000000
      1.78500      3.57000      8.92500        -0.000000      0.000000      0.000000
      1.78500      5.35500      7.14000        -0.000000     -0.000000      0.000000
      0.00000      3.57000     10.71000        -0.000000      0.000000     -0.000000
      0.00000      5.35500     12.49500         0.000000      0.000000      0.000000
      1.78500      3.57000     12.49500        -0.000000      0.000000      0.000000
      1.78500      5.35500     10.71000        -0.000000     -0.000000     -0.000000
      0.00000      7.14000      0.00000         0.000000     -0.000000     -0.000000
      0.00000      8.92500      1.78500         0.000000      0.000000     -0.000000
      1.78500      7.14000      1.78500         0.000000     -0.000000     -0.000000
      1.78500      8.92500      0.00000        -0.000000     -0.000000      0.000000
      0.00000      7.14000      3.57000        -0.000000     -0.000000     -0.000000
      0.00000      8.92500      5.35500        -0.000000      0.000000      0.000000
      1.78500      7.14000      5.35500        -0.000000     -0.000000     -0.000000
      1.78500      8.92500      3.57000         0.000000      0.000000     -0.000000
      0.00000      7.14000      7.14000        -0.000000     -0.000000      0.000000
      0.00000      8.92500      8.92500         0.000000     -0.000000      0.000000
      1.78500      7.14000      8.92500        -0.000000     -0.000000      0.000000
      1.78500      8.92500      7.14000        -0.000000      0.000000     -0.000000
      0.00000      7.14000     10.71000         0.000000     -0.000000      0.000000
      0.00000      8.92500     12.49500        -0.000000     -0.000000     -0.000000
      1.78500      7.14000     12.49500         0.000000     -0.000000     -0.000000
      1.78500      8.92500     10.71000         0.000000     -0.000000     -0.000000
      0.00000     10.71000      0.00000         0.000000      0.000000     -0.000000
      0.00000     12.49500      1.78500         0.000000      0.000000      0.000000
      1.78500     10.71000      1.78500         0.000000      0.000000     -0.000000
      1.78500     12.49500      0.00000         0.000000      0.000000     -0.000000
      0.00000     10.71000      3.57000         0.000000     -0.000000      0.000000
      0.00000     12.49500      5.35500        -0.000000      0.000000      0.000000
      1.78500     10.71000      5.35500        -0.000000     -0.000000      0.000000
      1.78500     12.49500      3.57000         0.000000     -0.000000      0.000000
      0.00000     10.71000      7.14000        -0.000000     -0.000000      0.000000
      0.00000     12.49500      8.92500        -0.000000     -0.000000      0.000000
      1.78500     10.71000      8.92500        -0.000000     -0.000000     -0.000000
      1.78500     12.49500      7.14000        -0.000000     -0.000000     -0.000000
[...]
     10.71000     12.49500      1.78500         0.000000      0.000000     -0.000000
     12.49500     10.71000      1.78500         0.000000      0.000000      0.000000
     12.49500     12.49500      0.00000         0.000000      0.000000      0.000000
     10.71000     10.71000      3.57000        -0.000000     -0.000000      0.000000
     10.71000     12.49500      5.35500        -0.000000     -0.000000      0.000000
     12.49500     10.71000      5.35500        -0.000000      0.000000      0.000000
     12.49500     12.49500      3.57000        -0.000000     -0.000000     -0.000000
     10.71000     10.71000      7.14000        -0.000000      0.000000     -0.000000
     10.71000     12.49500      8.92500         0.000000      0.000000     -0.000000
     12.49500     10.71000      8.92500        -0.000000     -0.000000     -0.000000
     12.49500     12.49500      7.14000        -0.000000     -0.000000      0.000000
     10.71000     10.71000     10.71000        -0.000000      0.000000      0.000000
     10.71000     12.49500     12.49500         0.000000      0.000000     -0.000000
     12.49500     10.71000     12.49500         0.000000     -0.000000      0.000000
     12.49500     12.49500     10.71000         0.000000      0.000000     -0.000000
    total drift:                                0.000000      0.000000      0.000000

  FREE ENERGIE OF THE ION-ELECTRON SYSTEM (eV)
  free  energy   TOTEN  =     -1497.47335603 eV

  energy  without entropy=    -1495.90087740  energy(sigma->0) =    -1496.68711671

 stress matrix after NEB project (eV)
   -340.93714      0.00000      0.00000
     -0.00000   -340.93714      0.00000
     -0.00000      0.00000   -340.93714
  FORCES: max atom, RMS     0.000000    0.000000
  FORCE total and by dimension    0.000000    0.000000
  Stress total and by dimension  590.520449  340.937140