 vasp.6.2.1 16May21 (build May 12 2022 08:28:04) complex
 executed on             LinuxPGI date 2022.07.13  02:26:41

 INCAR:
   SYSTEM = NiAl
   ISTART = 0
   EDIFF = 5E-6
   NELMIN = 6
   ISIF = 0
   NSW = 40
   IBRION = 2
   POTIM = 0.2
   IVDW = 12
   LWAVE = .FALSE.
   LCHARG = .FALSE.
   LREAL = Auto
   NCORE = 1
   LPLANE = .TRUE.
   ENCUT = 360.00 eV
   ISMEAR = 0
   SIGMA = 0.05

 POTCAR:    PAW Ni_GW 31Mar2010
 POTCAR:    PAW O_GW 19Mar2012
 POTCAR:    PAW Ni_GW 31Mar2010
   VRHFIN =Ni:

   TITEL  = PAW Ni_GW 31Mar2010
   POMASS =   58.690; ZVAL   =   10.000    mass and valenz
   ENMAX  =  357.323; ENMIN  =  267.992 eV

 POTCAR:    PAW O_GW 19Mar2012
   VRHFIN =O: s2p4

   TITEL  = PAW O_GW 19Mar2012
   POMASS =   16.000; ZVAL   =    6.000    mass and valenz
   ENMAX  =  434.431; ENMIN  =  325.824 eV

 Optimization of the real space projectors (new method)

 maximal supplied QI-value         = 16.25
 optimisation between [QCUT,QGAM] = [  9.59, 19.34] = [ 25.75,104.73] Ry
 Optimized for a Real-space Cutoff    1.46 Angstroem

   l    n(q)    QCUT    max X(q) W(low)/X(q) W(high)/X(q)  e(spline)
   2      7     9.588    94.285    0.33E-03    0.50E-03    0.16E-06
   2      7     9.588    92.549    0.33E-03    0.50E-03    0.16E-06
   0      8     9.588    17.118    0.28E-04    0.17E-03    0.57E-07
   0      8     9.588     8.062    0.24E-04    0.17E-03    0.61E-07
   1      8     9.588     4.910    0.48E-03    0.22E-03    0.79E-07
   1      8     9.588     3.344    0.32E-03    0.14E-03    0.56E-07
   3      7     9.588     5.513    0.55E-04    0.16E-03    0.12E-06
 Optimization of the real space projectors (new method)

 maximal supplied QI-value         = 23.62
 optimisation between [QCUT,QGAM] = [  9.68, 19.37] = [ 26.27,105.06] Ry
 Optimized for a Real-space Cutoff    2.14 Angstroem

   l    n(q)    QCUT    max X(q) W(low)/X(q) W(high)/X(q)  e(spline)
   0     13     9.685   116.464    0.15E-03    0.15E-03    0.47E-05
   0     13     9.685   116.329    0.15E-03    0.15E-03    0.46E-05
   0     13     9.685     0.942    0.20E-04    0.50E-04    0.17E-05
   1     12     9.685    29.046    0.36E-03    0.11E-02    0.25E-04
   1     12     9.685    24.247    0.38E-03    0.11E-02    0.26E-04
   1     12     9.685     2.381    0.13E-03    0.38E-03    0.78E-05
   2     12     9.685     2.237    0.60E-05    0.28E-04    0.14E-05
   2     12     9.685     1.850    0.17E-04    0.70E-04    0.25E-05
  PAW Ni_GW 31Mar2010                   :
  PAW O_GW 19Mar2012                    :

 POSCAR: Ni  O
  positions in cartesian coordinates
 exchange correlation table for  LEXCH =        8
   RHO(1)=    0.500       N(1)  =     2000
   RHO(2)=  100.500       N(2)  =     4000

 VTST: version 4.1, (05/19/21)

 CHAIN: initializing optimizer

 OPT: Using VASP Conjugate-Gradient optimizer
 CHAIN: Read ICHAIN             0

 POSCAR: Ni  O
  positions in cartesian coordinates

 ion  position               nearest neighbor table
   1  0.000  0.000  0.000- 146 1.49 226 1.49  21 2.11 101 2.11 106 2.11  46 2.11 126 2.11   6 2.11
                             2 2.11  26 2.11 246 2.11  22 2.98 102 2.98 107 2.98  47 2.98   7 2.98
   2  0.000  0.000  0.070- 146 1.49 226 1.49 147 1.49 227 1.49  22 2.11 102 2.11 107 2.11  47 2.11
                           126 2.11   7 2.11   1 2.11   3 2.11  27 2.11 127 2.11 246 2.11 247 2.11
   3  0.000  0.000  0.141- 147 1.49 227 1.49 148 1.49 228 1.49  23 2.11 103 2.11 108 2.11  48 2.11
                           127 2.11 128 2.11   8 2.11   2 2.11  28 2.11   4 2.11 247 2.11 248 2.11
   4  0.000  0.000  0.211- 149 1.49 229 1.49 148 1.49 228 1.49 129 2.11  24 2.11 104 2.11   5 2.11
                           109 2.11  49 2.11   9 2.11  29 2.11 128 2.11 249 2.11   3 2.11 248 2.11
   5  0.000  0.000  0.282- 150 1.49 230 1.49 149 1.49 229 1.49 130 2.11  25 2.11 105 2.11   4 2.11
                           110 2.11  50 2.11  10 2.11  30 2.11 129 2.11 250 2.11 249 2.11 251 2.45
   6  0.000  0.200  0.000- 126 1.49 231 1.49 106 2.11 111 2.11  11 2.11  26 2.11   1 2.11   7 2.11
                            31 2.11 131 2.11 226 2.11 107 2.98 112 2.98  12 2.98   2 2.98  27 2.98
   7  0.000  0.200  0.070- 126 1.49 127 1.49 231 1.49 232 1.49 107 2.11 112 2.11   2 2.11  12 2.11
                            27 2.11   6 2.11   8 2.11  32 2.11 131 2.11 132 2.11 226 2.11 227 2.11
   8  0.000  0.200  0.141- 127 1.49 128 1.49 232 1.49 233 1.49 108 2.11 113 2.11   3 2.11  13 2.11
                            28 2.11   7 2.11  33 2.11 132 2.11 133 2.11 227 2.11 228 2.11   9 2.11
   9  0.000  0.200  0.211- 129 1.49 234 1.49 128 1.49 233 1.49 109 2.11  10 2.11 134 2.11 114 2.11
                           229 2.11  29 2.11   4 2.11  14 2.11  34 2.11   8 2.11 133 2.11 228 2.11
  10  0.000  0.200  0.282- 130 1.49 235 1.49 129 1.49 234 1.49 110 2.11   9 2.11 135 2.11 115 2.11
                           230 2.11  30 2.11   5 2.11  15 2.11  35 2.11 134 2.11 229 2.11 253 2.51
  11  0.000  0.400  0.000- 131 1.49 236 1.49 111 2.11 136 2.11   6 2.11  31 2.11 116 2.11  12 2.11
                            36 2.11 231 2.11  16 2.11 112 2.98   7 2.98  32 2.98 117 2.98  37 2.98
  12  0.000  0.400  0.070- 131 1.49 132 1.49 236 1.49 237 1.49 112 2.11 136 2.11 137 2.11  32 2.11
                             7 2.11 117 2.11  13 2.11  11 2.11  37 2.11 231 2.11  17 2.11 232 2.11
  13  0.000  0.400  0.141- 132 1.49 133 1.49 237 1.49 238 1.49 113 2.11 137 2.11 138 2.11  33 2.11
                             8 2.11 118 2.11  12 2.11  38 2.11 232 2.11 233 2.11  18 2.11  14 2.11
  14  0.000  0.400  0.211- 134 1.49 239 1.49 133 1.49 238 1.49 139 2.11 114 2.11  15 2.11 234 2.11
                            34 2.11   9 2.11 119 2.11  39 2.11 138 2.11  19 2.11  13 2.11 233 2.11
  15  0.000  0.400  0.282- 135 1.49 240 1.49 134 1.49 239 1.49 140 2.11 115 2.11  14 2.11 235 2.11
                            35 2.11  10 2.11 120 2.11  40 2.11 139 2.11  20 2.11 234 2.11 254 2.47
  16  0.000  0.600  0.000- 241 1.49 136 1.49 141 2.11  21 2.11 121 2.11 116 2.11  17 2.11  41 2.11
                            36 2.11  11 2.11 236 2.11  22 2.98 122 2.98 117 2.98  42 2.98  37 2.98
  17  0.000  0.600  0.070- 241 1.49 242 1.49 136 1.49 137 1.49 141 2.11 142 2.11  22 2.11 122 2.11
                           117 2.11  18 2.11  16 2.11  42 2.11  37 2.11  12 2.11 236 2.11 237 2.11
  18  0.000  0.600  0.141- 242 1.49 243 1.49 137 1.49 138 1.49 142 2.11 143 2.11  23 2.11 123 2.11
                           118 2.11  17 2.11  43 2.11  38 2.11  13 2.11  19 2.11 237 2.11 238 2.11
  19  0.000  0.600  0.211- 244 1.49 139 1.49 243 1.49 138 1.49 144 2.11 143 2.11  24 2.11 124 2.11
                           119 2.11  20 2.11  44 2.11  39 2.11  14 2.11 239 2.11  18 2.11 238 2.11
  20  0.000  0.600  0.282- 245 1.49 140 1.49 244 1.49 139 1.49 145 2.11 144 2.11  25 2.11 125 2.11
                           120 2.11  19 2.11  45 2.11  40 2.11  15 2.11 240 2.11 239 2.11 256 2.47
  21  0.000  0.800  0.000- 246 1.49 141 1.49 146 2.11  16 2.11 101 2.11   1 2.11 121 2.11  41 2.11
                            22 2.11  46 2.11 241 2.11  17 2.98 102 2.98   2 2.98 122 2.98  42 2.98
  22  0.000  0.800  0.070- 246 1.49 247 1.49 141 1.49 142 1.49 146 2.11 147 2.11  17 2.11   2 2.11
                           102 2.11 122 2.11  42 2.11  23 2.11  21 2.11  47 2.11 241 2.11 242 2.11
  23  0.000  0.800  0.141- 247 1.49 248 1.49 142 1.49 143 1.49 147 2.11 148 2.11  18 2.11   3 2.11
                           103 2.11 123 2.11  43 2.11  22 2.11  48 2.11  24 2.11 242 2.11 243 2.11
  24  0.000  0.800  0.211- 249 1.49 144 1.49 248 1.49 143 1.49 149 2.11 148 2.11  19 2.11   4 2.11
                           104 2.11 124 2.11  25 2.11  44 2.11  49 2.11 244 2.11  23 2.11 243 2.11
  25  0.000  0.800  0.282- 250 1.49 145 1.49 249 1.49 144 1.49 150 2.11 149 2.11  20 2.11   5 2.11
                           105 2.11 125 2.11  24 2.11  45 2.11  50 2.11 245 2.11 244 2.11 257 2.51
  26  0.200  0.000  0.000- 126 1.49 171 1.49  46 2.11  71 2.11   6 2.11  31 2.11  27 2.11  51 2.11
                             1 2.11 151 2.11 146 2.11  47 2.98  72 2.98  32 2.98   7 2.98   2 2.98
  27  0.200  0.000  0.070- 126 1.49 127 1.49 171 1.49 172 1.49  47 2.11  72 2.11   7 2.11  32 2.11
                            28 2.11  26 2.11  52 2.11   2 2.11 151 2.11 152 2.11 146 2.11 147 2.11
  28  0.200  0.000  0.141- 127 1.49 128 1.49 172 1.49 173 1.49  48 2.11  73 2.11   8 2.11  33 2.11
                            27 2.11  53 2.11   3 2.11 152 2.11 153 2.11 147 2.11 148 2.11  29 2.11
  29  0.200  0.000  0.211- 129 1.49 174 1.49 128 1.49 173 1.49  49 2.11  30 2.11 154 2.11  74 2.11
                           149 2.11   9 2.11  34 2.11  54 2.11   4 2.11  28 2.11 153 2.11 148 2.11
  30  0.200  0.000  0.282- 130 1.49 175 1.49 129 1.49 174 1.49  50 2.11  29 2.11 155 2.11  75 2.11
                           150 2.11  10 2.11  35 2.11  55 2.11   5 2.11 154 2.11 149 2.11 267 2.51
  31  0.200  0.200  0.000- 131 1.49 151 1.49  36 2.11  51 2.11  11 2.11  26 2.11  32 2.11   6 2.11
                            56 2.11 126 2.11 156 2.11  37 2.98  12 2.98  52 2.98  27 2.98   7 2.98
  32  0.200  0.200  0.070- 131 1.49 151 1.49 132 1.49 152 1.49  12 2.11  27 2.11  37 2.11  52 2.11
                            31 2.11  33 2.11   7 2.11  57 2.11 126 2.11 127 2.11 156 2.11 157 2.11
  33  0.200  0.200  0.141- 132 1.49 152 1.49 133 1.49 153 1.49 127 2.11 128 2.11  38 2.11  53 2.11
                            13 2.11  28 2.11  32 2.11   8 2.11  58 2.11 157 2.11 158 2.11  34 2.11
  34  0.200  0.200  0.211- 134 1.49 154 1.49 153 1.49 133 1.49 129 2.11  35 2.11 159 2.11  39 2.11
                            54 2.11  29 2.11  14 2.11   9 2.11  59 2.11 128 2.11  33 2.11 158 2.11
  35  0.200  0.200  0.282- 135 1.49 155 1.49 154 1.49 134 1.49 130 2.11  34 2.11 160 2.11  40 2.11
                            55 2.11  30 2.11  15 2.11  10 2.11  60 2.11 129 2.11 159 2.11 268 2.55
  36  0.200  0.400  0.000- 136 1.49 156 1.49 131 2.11 161 2.11  31 2.11  56 2.11  37 2.11  11 2.11
                            61 2.11  16 2.11  41 2.11  57 2.98  32 2.98  12 2.98  62 2.98  17 2.98
  37  0.200  0.400  0.070- 136 1.49 156 1.49 137 1.49 157 1.49 131 2.11 132 2.11  32 2.11  57 2.11
                            38 2.11  36 2.11  12 2.11  62 2.11 161 2.11 162 2.11  17 2.11  42 2.11
  38  0.200  0.400  0.141- 137 1.49 138 1.49 157 1.49 158 1.49 132 2.11 133 2.11 162 2.11 163 2.11
                            33 2.11  58 2.11  37 2.11  13 2.11  63 2.11  18 2.11  43 2.11  39 2.11
  39  0.200  0.400  0.211- 139 1.49 159 1.49 138 1.49 158 1.49 134 2.11 164 2.11  40 2.11  34 2.11
                            59 2.11  14 2.11  64 2.11 133 2.11  19 2.11 163 2.11  44 2.11  38 2.11
  40  0.200  0.400  0.282- 140 1.49 160 1.49 139 1.49 159 1.49 135 2.11 165 2.11  39 2.11  35 2.11
                            60 2.11  15 2.11  65 2.11 134 2.11  20 2.11 164 2.11  45 2.11 270 2.50
  41  0.200  0.600  0.000- 141 1.49 161 1.49 166 2.11  46 2.11  21 2.11  42 2.11  66 2.11  16 2.11
                            61 2.11  36 2.11 136 2.11  47 2.98  22 2.98  17 2.98  67 2.98  62 2.98
  42  0.200  0.600  0.070- 141 1.49 142 1.49 161 1.49 162 1.49 166 2.11 167 2.11  47 2.11  22 2.11
[...]
   -.549E-04 -.317E-04 0.251E+04   0.257E-03 0.148E-03 -.304E+04   -.434E-18 0.000E+00 -.191E+01   -.435E-04 -.251E-04 0.531E+03
   -.291E-04 -.168E-04 -.522E+03   0.259E-03 0.150E-03 0.133E+04   -.434E-18 0.000E+00 0.113E+02   -.656E-04 -.379E-04 -.799E+03
   -.292E-04 -.169E-04 -.417E+04   0.212E-03 0.123E-03 0.579E+04   -.867E-18 0.000E+00 -.405E+02   -.392E-04 -.227E-04 -.157E+04
   -.770E+03 -.342E+03 0.832E+04   -.164E+02 0.313E+02 -.977E+04   -.161E+02 -.232E+02 -.838E+01   0.785E+03 0.328E+03 0.145E+04
   -.229E+03 0.138E+03 0.511E+04   0.304E+02 0.175E+02 -.718E+04   0.971E+00 -.300E+00 0.349E+00   0.196E+03 -.160E+03 0.207E+04
   -.191E+03 0.473E+03 0.235E+04   0.415E+01 0.470E+01 -.305E+04   0.100E+01 0.178E+01 -.751E+00   0.186E+03 -.475E+03 0.689E+03
   -.396E+03 0.337E+03 -.764E+03   -.605E+01 -.968E+01 0.132E+04   -.108E+00 0.418E+00 0.958E-01   0.411E+03 -.330E+03 -.552E+03
   -.251E+03 0.876E+02 -.391E+04   -.556E+02 0.107E+03 0.569E+04   0.755E+00 -.599E+00 -.111E+02   0.291E+03 -.179E+03 -.172E+04
   -.421E+03 0.111E+03 0.834E+04   0.180E+02 -.113E+02 -.976E+04   -.183E+02 0.302E+01 -.719E+01   0.414E+03 -.960E+02 0.142E+04
   -.226E+03 -.329E+02 0.545E+04   0.134E+02 0.127E+02 -.720E+04   0.103E+01 -.635E+00 -.372E+00   0.210E+03 0.152E+02 0.175E+04
   -.434E+02 0.352E+03 0.263E+04   -.657E+01 -.316E+01 -.305E+04   0.921E-01 0.410E+01 0.696E+01   0.490E+02 -.346E+03 0.402E+03
   0.815E+02 0.442E+03 -.952E+03   -.376E+01 -.645E+01 0.133E+04   0.689E+01 0.895E+01 -.181E+01   -.806E+02 -.437E+03 -.380E+03
   -.708E+02 0.246E+03 -.420E+04   0.433E+01 -.115E+03 0.575E+04   -.117E+01 0.634E+01 -.127E+02   0.705E+02 -.156E+03 -.150E+04
   0.421E+03 -.111E+03 0.834E+04   -.180E+02 0.113E+02 -.976E+04   0.183E+02 -.302E+01 -.719E+01   -.414E+03 0.960E+02 0.142E+04
   0.226E+03 0.329E+02 0.545E+04   -.134E+02 -.127E+02 -.720E+04   -.103E+01 0.635E+00 -.372E+00   -.210E+03 -.152E+02 0.175E+04
   0.434E+02 -.352E+03 0.263E+04   0.657E+01 0.316E+01 -.305E+04   -.921E-01 -.410E+01 0.696E+01   -.490E+02 0.346E+03 0.402E+03
   -.815E+02 -.442E+03 -.952E+03   0.376E+01 0.645E+01 0.133E+04   -.689E+01 -.895E+01 -.181E+01   0.806E+02 0.437E+03 -.380E+03
   0.708E+02 -.246E+03 -.420E+04   -.433E+01 0.115E+03 0.575E+04   0.117E+01 -.634E+01 -.127E+02   -.705E+02 0.156E+03 -.150E+04
   0.770E+03 0.342E+03 0.832E+04   0.164E+02 -.313E+02 -.977E+04   0.161E+02 0.232E+02 -.838E+01   -.785E+03 -.328E+03 0.145E+04
   0.229E+03 -.138E+03 0.511E+04   -.304E+02 -.175E+02 -.718E+04   -.971E+00 0.300E+00 0.349E+00   -.196E+03 0.160E+03 0.207E+04
   0.191E+03 -.473E+03 0.235E+04   -.415E+01 -.470E+01 -.305E+04   -.100E+01 -.178E+01 -.751E+00   -.186E+03 0.475E+03 0.689E+03
   0.396E+03 -.337E+03 -.764E+03   0.605E+01 0.968E+01 0.132E+04   0.108E+00 -.418E+00 0.958E-01   -.411E+03 0.330E+03 -.552E+03
   0.251E+03 -.876E+02 -.391E+04   0.556E+02 -.107E+03 0.569E+04   -.755E+00 0.599E+00 -.111E+02   -.291E+03 0.179E+03 -.172E+04
   -.681E+03 -.496E+03 0.832E+04   0.189E+02 -.298E+02 -.977E+04   -.281E+02 -.237E+01 -.838E+01   0.676E+03 0.515E+03 0.145E+04
   0.481E+01 -.268E+03 0.511E+04   0.304E+02 0.176E+02 -.718E+04   0.225E+00 0.991E+00 0.349E+00   -.407E+02 0.249E+03 0.207E+04
   0.314E+03 -.402E+03 0.235E+04   0.614E+01 0.124E+01 -.305E+04   0.204E+01 -.241E-01 -.751E+00   -.319E+03 0.399E+03 0.689E+03
   0.934E+02 -.512E+03 -.764E+03   -.114E+02 -.400E+00 0.132E+04   0.308E+00 -.303E+00 0.958E-01   -.802E+02 0.521E+03 -.552E+03
   -.497E+02 -.261E+03 -.391E+04   0.652E+02 -.102E+03 0.569E+04   -.142E+00 0.953E+00 -.111E+02   -.933E+01 0.342E+03 -.172E+04
   -.199E+03 -.115E+03 0.833E+04   0.321E+02 0.185E+02 -.976E+04   0.380E+01 0.219E+01 0.129E+01   0.187E+03 0.108E+03 0.144E+04
   0.273E+02 0.158E+02 0.534E+04   0.142E+02 0.819E+01 -.718E+04   0.182E+01 0.105E+01 -.366E+01   -.445E+02 -.257E+02 0.184E+04
   0.366E+03 0.212E+03 0.247E+04   -.105E+02 -.605E+01 -.305E+04   0.194E+01 0.112E+01 0.555E+01   -.357E+03 -.206E+03 0.571E+03
   0.557E+03 0.322E+03 -.745E+03   -.338E+01 -.195E+01 0.133E+04   0.747E+01 0.431E+01 -.223E+01   -.560E+03 -.323E+03 -.574E+03
   0.321E+03 0.185E+03 -.407E+04   0.387E+02 0.223E+02 0.571E+04   0.612E+01 0.354E+01 -.293E+02   -.357E+03 -.206E+03 -.158E+04
   0.677E+03 0.333E+03 0.836E+04   -.557E+02 -.507E+02 -.975E+04   0.245E+02 0.124E+02 -.768E+01   -.637E+03 -.285E+03 0.139E+04
   0.457E+03 0.125E+03 0.547E+04   -.150E+02 0.343E+01 -.719E+04   0.269E-01 0.313E+00 -.693E+00   -.432E+03 -.127E+03 0.171E+04
   0.321E+03 0.149E+03 0.269E+04   -.803E+00 0.140E+02 -.306E+04   0.167E+01 0.193E+01 0.794E+01   -.321E+03 -.161E+03 0.358E+03
   0.326E+03 0.687E+02 -.858E+03   0.170E+01 -.444E+01 0.132E+04   -.368E+00 0.111E+01 0.580E+00   -.328E+03 -.646E+02 -.464E+03
   0.429E+03 0.907E+02 -.422E+04   0.938E+02 -.145E+03 0.573E+04   -.915E+00 0.878E+01 -.227E+02   -.507E+03 0.238E+02 -.145E+04
   0.684E+03 0.174E+02 0.842E+04   -.881E+02 0.103E+03 -.974E+04   0.142E+02 -.861E+01 -.701E+01   -.606E+03 -.109E+03 0.133E+04
   0.665E+03 -.178E+03 0.533E+04   -.329E+02 -.186E+02 -.720E+04   -.348E+00 0.779E+00 -.768E+01   -.622E+03 0.192E+03 0.187E+04
   0.450E+03 -.317E+03 0.245E+04   -.178E+01 -.107E+02 -.305E+04   0.245E+01 0.112E+01 0.498E+01   -.448E+03 0.323E+03 0.587E+03
   0.563E+03 -.379E+03 -.773E+03   0.358E+01 0.106E+02 0.132E+04   0.384E+01 -.468E+00 -.961E+00   -.574E+03 0.367E+03 -.543E+03
   0.625E+03 -.423E+03 -.408E+04   0.297E+02 0.459E+02 0.567E+04   0.711E+01 -.103E+02 -.371E+02   -.650E+03 0.384E+03 -.151E+04
   0.480E+02 -.831E+02 0.831E+04   -.137E+02 0.237E+02 -.975E+04   -.103E+01 0.178E+01 -.950E+01   -.327E+02 0.567E+02 0.144E+04
   0.313E+03 -.542E+03 0.511E+04   0.114E+02 -.197E+02 -.713E+04   -.358E+00 0.620E+00 -.268E+00   -.323E+03 0.560E+03 0.202E+04
   0.418E+03 -.723E+03 0.258E+04   -.138E+01 0.239E+01 -.305E+04   0.515E+01 -.892E+01 0.494E+01   -.417E+03 0.722E+03 0.470E+03
   0.342E+03 -.592E+03 -.699E+03   -.411E+01 0.711E+01 0.133E+04   0.917E+01 -.159E+02 0.491E+01   -.343E+03 0.594E+03 -.626E+03
   0.254E+03 -.441E+03 -.426E+04   0.458E+02 -.794E+02 0.574E+04   0.110E+01 -.191E+01 -.348E+02   -.293E+03 0.508E+03 -.142E+04
   -.114E+03 -.420E+03 0.834E+04   -.771E+00 0.212E+02 -.976E+04   -.652E+01 -.173E+02 -.719E+01   0.124E+03 0.407E+03 0.142E+04
   -.141E+03 -.179E+03 0.545E+04   0.177E+02 0.528E+01 -.720E+04   -.328E-01 0.121E+01 -.372E+00   0.118E+03 0.174E+03 0.175E+04
   0.283E+03 -.213E+03 0.263E+04   -.603E+01 -.411E+01 -.305E+04   0.360E+01 -.197E+01 0.696E+01   -.275E+03 0.216E+03 0.402E+03
   0.424E+03 -.151E+03 -.952E+03   -.747E+01 -.336E-01 0.133E+04   0.112E+02 0.149E+01 -.181E+01   -.419E+03 0.149E+03 -.380E+03
   0.178E+03 -.185E+03 -.420E+04   -.978E+02 0.615E+02 0.575E+04   0.491E+01 -.419E+01 -.127E+02   -.996E+02 0.139E+03 -.150E+04
   0.627E+03 0.420E+03 0.836E+04   -.718E+02 -.229E+02 -.975E+04   0.229E+02 0.150E+02 -.768E+01   -.566E+03 -.409E+03 0.139E+04
   0.337E+03 0.333E+03 0.547E+04   -.455E+01 -.147E+02 -.719E+04   0.284E+00 -.133E+00 -.693E+00   -.326E+03 -.310E+03 0.171E+04
   0.290E+03 0.203E+03 0.269E+04   0.118E+02 -.772E+01 -.306E+04   0.251E+01 0.487E+00 0.794E+01   -.299E+03 -.197E+03 0.358E+03
   0.222E+03 0.248E+03 -.858E+03   -.300E+01 0.369E+01 0.132E+04   0.779E+00 -.874E+00 0.580E+00   -.220E+03 -.252E+03 -.464E+03
   0.293E+03 0.326E+03 -.422E+04   -.791E+02 0.154E+03 0.573E+04   0.714E+01 -.518E+01 -.227E+02   -.233E+03 -.451E+03 -.145E+04
[...]
   -.107E+03 0.186E+03 -.505E+04   0.202E+02 -.349E+02 0.633E+04   -.417E+01 0.722E+01 0.459E+02   0.922E+02 -.160E+03 -.129E+04
   -.234E+03 0.122E+03 -.369E+04   0.556E+02 -.915E+01 0.539E+04   -.125E+01 0.937E+00 0.267E+02   0.186E+03 -.115E+03 -.174E+04
   -.230E+03 0.845E+01 -.526E+04   0.335E+02 -.685E+00 0.643E+04   -.153E+02 -.122E+01 0.436E+02   0.209E+03 -.750E+01 -.117E+04
   -.194E+03 0.186E+03 -.451E+04   0.261E+02 -.137E+03 0.598E+04   -.621E+01 -.103E+01 0.402E+02   0.172E+03 -.673E+02 -.149E+04
   -.258E+03 -.149E+03 -.389E+04   0.126E+03 0.725E+02 0.561E+04   0.964E+01 0.557E+01 0.313E+02   0.145E+03 0.840E+02 -.175E+04
   0.429E+02 -.217E+02 -.528E+04   -.156E+02 0.149E+02 0.654E+04   0.146E+01 0.271E+01 0.493E+02   -.270E+02 0.618E+01 -.125E+04
   0.257E+02 -.102E+03 -.393E+04   -.169E+02 0.944E+02 0.568E+04   -.862E+01 0.482E+01 0.338E+02   -.560E+01 0.191E+02 -.178E+04
   -.574E+02 0.994E+02 -.564E+04   0.219E+02 -.380E+02 0.670E+04   0.325E+01 -.564E+01 0.440E+02   0.358E+02 -.621E+02 -.106E+04
   0.477E+02 0.199E+03 -.460E+04   -.892E+02 -.780E+02 0.608E+04   -.281E+01 0.654E+00 0.476E+02   0.297E+02 -.132E+03 -.150E+04
   -.183E+03 -.190E+03 -.457E+04   0.229E+02 0.137E+03 0.604E+04   -.622E+01 -.141E+00 0.437E+02   0.165E+03 0.710E+02 -.150E+04
   -.164E+03 -.273E+01 -.567E+04   0.539E+02 0.453E+01 0.670E+04   0.942E+01 0.127E+01 0.486E+02   0.111E+03 -.163E+01 -.103E+04
   0.524E+02 0.384E+02 -.399E+04   -.861E+02 -.192E+02 0.568E+04   -.421E+01 0.241E+01 0.297E+02   0.249E+02 -.211E+02 -.171E+04
   0.262E+01 0.480E+02 -.528E+04   0.509E+01 -.210E+02 0.654E+04   0.308E+01 -.916E-01 0.493E+02   -.813E+01 -.264E+02 -.125E+04
   0.571E+02 0.330E+02 -.503E+04   -.200E+02 -.115E+02 0.639E+04   0.394E+01 0.227E+01 0.460E+02   -.429E+02 -.247E+02 -.137E+04
   0.897E-02 0.518E-02 0.542E+05   -.392E-11 0.337E-11 0.231E-09   -.266E-13 -.226E-13 0.220E+04   0.233E-02 0.134E-02 -.551E+05

 POSITION                                       TOTAL-FORCE (eV/Angst)
      0.00000     -0.00000     -1.30826         0.000000      0.000000    -13.549403
      0.00000     -0.00000      1.97753         0.000000      0.000000    -16.591250
      0.00000     -0.00000      4.24726         0.000000      0.000000     -6.901939
      0.00000     -0.00000      6.33521         0.000000      0.000000     11.825263
      0.00000     -0.00000      8.48236         0.000000      0.000000     -1.728229
      1.05477      1.81717     -1.25020       -17.906224     -5.540692    -12.116144
      1.04578      1.81937      1.99158        -2.533483     -4.717352     -4.200599
      1.05556      1.82461      4.25253        -0.375488      3.939836    -12.066745
      1.04942      1.83058      6.34436         8.684799     -2.630240     -0.901749
      1.09898      1.77556      8.38852       -14.690165     15.511615     41.902037
      2.08870      3.65681     -1.33977        -6.534027      7.049575     -8.561304
      2.10141      3.64750      1.97710        -1.620718     -5.584066     -4.252702
      2.11629      3.65685      4.26196        -0.865671      6.455470     -6.839136
      2.10882      3.64897      6.34981         3.941585      7.629157     -6.756727
      2.10540      3.71073      8.44295         2.880565    -18.370517     33.237176
      3.18205      5.47240     -1.33977         6.534027     -7.049575     -8.561304
      3.16934      5.48171      1.97710         1.620718      5.584066     -4.252702
      3.15446      5.47236      4.26196         0.865671     -6.455470     -6.839136
      3.16193      5.48024      6.34981        -3.941585     -7.629157     -6.756727
      3.16535      5.41848      8.44295        -2.880565     18.370517     33.237176
      4.21598      7.31203     -1.25020        17.906224      5.540692    -12.116144
      4.22497      7.30984      1.99158         2.533483      4.717352     -4.200599
      4.21519      7.30460      4.25253         0.375488     -3.939836    -12.066745
      4.22133      7.29862      6.34436        -8.684799      2.630240     -0.901749
      4.17177      7.35365      8.38852        14.690165    -15.511615     41.902037
      2.10110      0.00487     -1.25020       -13.751492    -12.736899    -12.116144
      2.09850     -0.00401      1.99158        -5.352088      0.164615     -4.200599
      2.10794      0.00184      4.25253         3.224254     -2.295101    -12.066745
      2.11004     -0.00646      6.34436         2.064544      8.836376     -0.901749
      2.08717      0.06397      8.38852         6.088370    -20.477863     41.902037
      3.15244      1.82006     -1.29237        23.872270     13.782662     11.288865
      3.15644      1.82237      1.98403        -1.192670     -0.688589    -13.229530
      3.17138      1.83100      4.26126         0.979373      0.565441    -13.369258
      3.15910      1.82391      6.33632         1.285275      0.742054      0.776650
      3.18260      1.83748      8.40683         9.144839      5.279775     23.138836
      4.26304      3.68140     -1.35320         8.111259      8.933327    -14.025618
      4.21931      3.65029      1.99530        10.460213      1.622631     -5.321026
      4.22038      3.64896      4.25441         1.256223      4.514753     -7.580620
      4.21752      3.64722      6.33598        -0.858212      0.737385     -1.273870
      4.15744      3.72622      8.41687        15.187749    -22.215466     27.467271
      5.35000      5.38758     -1.32422         4.307741      2.980300    -10.629217
      5.27965      5.48936      1.98027         9.583185     -4.135183    -12.264291
      5.26671      5.48055      4.25209         2.375462     -3.518850    -13.886617
      5.27061      5.47591      6.34341        -3.614805     -2.373860     -4.282269
      5.26574      5.46992      8.37557        11.449257     -3.401892     28.711613
      6.34913      7.26140     -1.25241         0.581455     -1.007110    -13.261752
      6.30564      7.33673      2.03814         0.812654     -1.407558     -7.170912
      6.32871      7.29678      4.24062         4.508842     -7.809543     -5.402883
      6.32681      7.30006      6.33027         4.003940     -6.935027      1.914265
      6.29367      7.35746      8.43555         8.105231    -14.038672     15.481946
      4.21124     -0.01954     -1.33977         2.838098     -9.183420     -8.561304
      4.20953     -0.00387      1.97710        -5.646302      1.388450     -4.252702
      4.22507      0.00433      4.26196         5.157765     -3.977428     -6.839136
      4.21451      0.00181      6.34981         8.577836     -0.401066     -6.756727
      4.26629     -0.03204      8.44295       -14.469052     11.679901     33.237176
      5.31970      1.85120     -1.35320        11.792117      2.557892    -14.025618
      5.27090      1.82889      1.99530         6.635346      8.247494     -5.321026
      5.27028      1.83048      4.25441         4.538003     -1.169456     -7.580620
      5.26734      1.82888      6.33598         0.209488     -1.111925     -1.273870
      5.30572      1.73734      8.41687       -11.645284     24.260710     27.467271
[...]
      8.53475      1.13107     11.49891        15.977687      7.592305     24.667002
      9.19980      2.32389     11.66906         0.919484     -1.592593     35.870310
      9.87855      3.43102     11.08014         6.332529     -0.706337    -18.006212
     10.48559      4.57778     11.76176        -2.761842     -0.956008     38.526647
     11.19554      5.73646     11.43196        -1.886175    -18.974914     18.268023
     11.84999      6.84159     11.21604        22.765358     13.143586     -6.333860
     12.46800      8.02478     11.85235         1.771250      2.050596     45.868886
      9.23785     -0.01735     11.23866        -5.429114     16.069719     -0.553158
      9.91272      1.08909     12.03187         3.613001     -6.257901     41.061662
     10.56534      2.30344     11.49891       -14.563972    -10.040931     24.667002
     11.20189      3.38231     11.47835        -1.536695     18.169066     21.341056
     11.89529      4.54542     12.06969        10.417912      1.439202     44.736517
     12.54088      5.69511     11.23928       -13.004146      0.489618     -2.251827
     13.18366      6.78522     11.85235         2.661493      0.508649     45.868886
     13.86571      8.00537     11.72645        -1.808798     -1.044310     38.751613
    total drift:                                0.011302      0.006525   1228.312289

  FREE ENERGIE OF THE ION-ELECTRON SYSTEM (eV)
  free  energy   TOTEN  =     -5306.66442634 eV

  energy  without entropy=    -5306.50452647  energy(sigma->0) =    -5306.58447640

 d Force = 0.1713369E+07[-0.135E+04, 0.343E+07]  d Energy =-0.3498279E+07 0.521E+07
 d Force =-0.5368313E+06[-0.571E+06,-0.502E+06]  d Ewald  =-0.5373689E+06 0.538E+03

 stress matrix after NEB project (eV)
   -123.13680     -0.48872     -0.00000
     -0.48872   -122.57248     -0.00000
     -0.00000     -0.00000   -102.90601
  FORCES: max atom, RMS    47.033943   20.943398
  FORCE total and by dimension  371.117955   45.868886
  Stress total and by dimension  201.932683  123.136798

 reached required accuracy - stopping structural energy minimisation