 vasp.6.2.1 16May21 (build Jun 16 2021 03:23:30) complex
 executed on             LinuxPGI date 2022.04.24  18:32:47

 INCAR:
   SYSTEM = NiAl
   ISTART = 0
   EDIFF = 1E-7
   NELMIN = 6
   ISIF = 1
   NSW = 40
   IBRION = 2
   POTIM = 0.2
   IVDW = 12
   LWAVE = .FALSE.
   LCHARG = .FALSE.
   LREAL = Auto
   NCORE = 1
   LPLANE = .TRUE.
   ENCUT = 360.00 eV
   ISMEAR = 0
   SIGMA = 0.05

 POTCAR:    PAW Al_GW 19Mar2012
 POTCAR:    PAW O_GW 19Mar2012
 POTCAR:    PAW Al_GW 19Mar2012
   VRHFIN =Al: s2p1

   TITEL  = PAW Al_GW 19Mar2012
   POMASS =   26.982; ZVAL   =    3.000    mass and valenz
   ENMAX  =  240.300; ENMIN  =  180.225 eV

 POTCAR:    PAW O_GW 19Mar2012
   VRHFIN =O: s2p4

   TITEL  = PAW O_GW 19Mar2012
   POMASS =   16.000; ZVAL   =    6.000    mass and valenz
   ENMAX  =  434.431; ENMIN  =  325.824 eV

 Optimization of the real space projectors (new method)

 maximal supplied QI-value         = 18.90
 optimisation between [QCUT,QGAM] = [  9.64, 19.28] = [ 26.01,104.04] Ry
 Optimized for a Real-space Cutoff    1.46 Angstroem

   l    n(q)    QCUT    max X(q) W(low)/X(q) W(high)/X(q)  e(spline)
   0      8     9.638    11.519    0.10E-03    0.23E-03    0.86E-07
   0      8     9.638     5.834    0.72E-04    0.17E-03    0.68E-07
   1      8     9.638    10.132    0.33E-03    0.11E-03    0.32E-06
   1      8     9.638     3.004    0.25E-03    0.10E-03    0.24E-06
   2      7     9.638     3.169    0.30E-03    0.50E-03    0.35E-06
   2      7     9.638     1.607    0.15E-03    0.13E-03    0.12E-06
 Optimization of the real space projectors (new method)

 maximal supplied QI-value         = 23.62
 optimisation between [QCUT,QGAM] = [  9.68, 19.37] = [ 26.27,105.06] Ry
 Optimized for a Real-space Cutoff    2.14 Angstroem

   l    n(q)    QCUT    max X(q) W(low)/X(q) W(high)/X(q)  e(spline)
   0     13     9.685   116.464    0.15E-03    0.15E-03    0.47E-05
   0     13     9.685   116.329    0.15E-03    0.15E-03    0.46E-05
   0     13     9.685     0.942    0.20E-04    0.50E-04    0.17E-05
   1     12     9.685    29.046    0.36E-03    0.11E-02    0.25E-04
   1     12     9.685    24.247    0.38E-03    0.11E-02    0.26E-04
   1     12     9.685     2.381    0.13E-03    0.38E-03    0.78E-05
   2     12     9.685     2.237    0.60E-05    0.28E-04    0.14E-05
   2     12     9.685     1.850    0.17E-04    0.70E-04    0.25E-05
  PAW Al_GW 19Mar2012                   :
  PAW O_GW 19Mar2012                    :

 POSCAR: al12 o18
  positions in direct lattice
 exchange correlation table for  LEXCH =        8
   RHO(1)=    0.500       N(1)  =     2000
   RHO(2)=  100.500       N(2)  =     4000

 VTST: version 4.1, (05/19/21)

 CHAIN: initializing optimizer

 OPT: Using VASP Conjugate-Gradient optimizer
 CHAIN: Read ICHAIN             0

 POSCAR: al12 o18
  positions in direct lattice

 ion  position               nearest neighbor table
   1  0.000  0.000  0.148-  17 1.87  14 1.87  18 1.87  15 1.99  13 1.99  16 1.99
   2  0.333  0.667  0.019-  17 1.87  14 1.87  18 1.87  25 1.99  28 1.99  27 1.99
   3  0.333  0.667  0.315-  13 1.87  16 1.87  15 1.87  24 1.99  20 1.99  23 1.99
   4  0.667  0.333  0.185-  16 1.87  15 1.87  13 1.87  18 1.99  14 1.99  17 1.99
   5  0.667  0.333  0.481-  23 1.87  20 1.87  24 1.87  22 1.99  21 1.99  19 1.99
   6  0.000  0.000  0.352-  24 1.87  23 1.87  20 1.87  15 1.99  13 1.99  16 1.99
   7  0.000  0.000  0.648-  21 1.87  22 1.87  19 1.87  29 1.99  26 1.99  30 1.99
   8  0.333  0.667  0.519-  19 1.87  22 1.87  21 1.87  24 1.99  20 1.99  23 1.99
   9  0.333  0.667  0.815-  26 1.87  30 1.87  29 1.87  25 1.99  28 1.99  27 1.99
  10  0.667  0.333  0.685-  30 1.87  26 1.87  29 1.87  22 1.99  21 1.99  19 1.99
  11  0.667  0.333  0.981-  27 1.87  28 1.87  25 1.87  18 1.99  14 1.99  17 1.99
  12  0.000  0.000  0.852-  25 1.87  27 1.87  28 1.87  29 1.99  26 1.99  30 1.99
  13  0.306  0.000  0.250-   3 1.87   4 1.87   6 1.99   1 1.99
  14  0.667  0.027  0.083-   2 1.87   1 1.87  11 1.99   4 1.99
  15  1.000  0.306  0.250-   3 1.87   4 1.87   6 1.99   1 1.99
  16  0.694  0.694  0.250-   3 1.87   4 1.87   6 1.99   1 1.99
  17  0.973  0.639  0.083-   2 1.87   1 1.87  11 1.99   4 1.99
  18  0.361  0.333  0.083-   2 1.87   1 1.87  11 1.99   4 1.99
  19  0.973  0.333  0.583-   7 1.87   8 1.87   5 1.99  10 1.99
  20  0.333  0.361  0.417-   5 1.87   6 1.87   3 1.99   8 1.99
  21  0.667  0.639  0.583-   7 1.87   8 1.87   5 1.99  10 1.99
  22  0.361  0.027  0.583-   7 1.87   8 1.87   5 1.99  10 1.99
  23  0.639  0.973  0.417-   5 1.87   6 1.87   3 1.99   8 1.99
  24  0.027  0.667  0.417-   6 1.87   5 1.87   3 1.99   8 1.99
  25  0.639  0.667  0.917-  11 1.87  12 1.87   2 1.99   9 1.99
  26  0.000  0.694  0.750-   9 1.87  10 1.87  12 1.99   7 1.99
  27  0.333  0.973  0.917-  11 1.87  12 1.87   2 1.99   9 1.99
  28  0.027  0.361  0.917-  11 1.87  12 1.87   2 1.99   9 1.99
  29  0.306  0.306  0.750-   9 1.87  10 1.87  12 1.99   7 1.99
  30  0.694  0.000  0.750-   9 1.87  10 1.87  12 1.99   7 1.99

  LATTYP: Found a hexagonal cell.
 ALAT       =     4.8050279617
 C/A-ratio  =     2.7296935538

  Lattice vectors:

 A1 = (   4.8050279617,   0.0000000000,   0.0000000000)
 A2 = (  -2.4025139809,   4.1612762808,   0.0000000000)
 A3 = (   0.0000000000,   0.0000000000,  13.1162538528)

Analysis of symmetry for initial positions (statically):
 Subroutine PRICEL returns following result:

  LATTYP: Found a trigonal (rhomboedric) cell.
 ALAT       =     5.1779557963
 COS(alpha) =     0.5694285031

[...]

   3 primitive cells build up your supercell.

 Routine SETGRP: Setting up the symmetry group for a
 hexagonal supercell.

 Subroutine GETGRP returns: Found 12 space group operations
 (whereof  6 operations were pure point group operations)
 out of a pool of 24 trial point group operations.

The static configuration has the point symmetry S_6 .
 The point group associated with its full space group is D_3d.

Analysis of symmetry for dynamics (positions and initial velocities):
 Subroutine PRICEL returns following result:

  LATTYP: Found a trigonal (rhomboedric) cell.
 ALAT       =     5.1779557963
 COS(alpha) =     0.5694285031

  Lattice vectors:

 A1 = (   0.0000000481,  -2.7741842260,   4.3720850985)
 A2 = (   2.4025138847,   1.3870921713,   4.3720836557)
 A3 = (  -2.4025139328,   1.3870920548,   4.3720850985)

   3 primitive cells build up your supercell.

 Routine SETGRP: Setting up the symmetry group for a
 hexagonal supercell.

 Subroutine GETGRP returns: Found 12 space group operations
 (whereof  6 operations were pure point group operations)
 out of a pool of 24 trial point group operations.

The dynamic configuration has the point symmetry S_6 .
 The point group associated with its full space group is D_3d.

 Subroutine INISYM returns: Found 12 space group operations
 (whereof  6 operations are pure point group operations),
 and found     3 'primitive' translations

                                     Primitive cell

  volume of cell :      87.4200

  direct lattice vectors                    reciprocal lattice vectors
     0.000000048 -2.774184226  4.372085099     0.000000029 -0.240310872  0.076241281
     2.402513885  1.387092171  4.372083656     0.208115360  0.120155459  0.076241281
    -2.402513933  1.387092055  4.372085099    -0.208115320  0.120155452  0.076241281

  length of vectors
     5.177955796  5.177954533  5.177955743     0.252115148  0.252115193  0.252115157

  position of ions in fractional coordinates (direct lattice)
     0.147903991  0.147903991  0.147903991
     0.352095982  0.352095982  0.352095982
     0.647903946  0.647903946  0.647903946
     0.852096018  0.852096018  0.852096018
     0.250000042  0.556146047  0.943854012
     0.056146085  0.750000090  0.443854017
     0.943854138  0.250000122  0.556146070
     0.556146048  0.943854058  0.250000066
     0.443854092  0.056146147  0.750000054
     0.749999976  0.443853981  0.056145996

  ion indices of the primitive-cell ions
   primitive index   ion index
                 1           1
                 2           6
                 3           7
                 4          12
                 5          13
                 6          14
                 7          15
                 8          28
                 9          17
                10          24

 KPOINTS: Automatic generation

Automatic generation of k-mesh.
 Grid dimensions read from file:
 generate k-points for:    6    6    2

 Generating k-lattice:

  Cartesian coordinates                     Fractional coordinates (reciprocal lattice)
     0.034685889  0.020025907 -0.000000000     0.166666667  0.000000000  0.000000000
     0.000000000  0.040051815  0.000000000     0.000000000  0.166666667  0.000000000
     0.000000000 -0.000000000  0.038120641     0.000000000  0.000000000  0.500000000

  Length of vectors
     0.040051815  0.040051815  0.038120641

  Shift w.r.t. Gamma in fractional coordinates (k-lattice)
     0.000000000  0.000000000  0.000000000

 Subroutine IBZKPT returns following result:

 Found     14 irreducible k-points:

 Following reciprocal coordinates:
            Coordinates               Weight
  0.000000  0.000000  0.000000      1.000000
  0.166667  0.000000  0.000000      6.000000
  0.333333  0.000000  0.000000      6.000000
  0.500000  0.000000  0.000000      3.000000
  0.166667  0.166667  0.000000      6.000000
  0.333333  0.166667  0.000000     12.000000
  0.333333  0.333333  0.000000      2.000000
  0.000000  0.000000  0.500000      1.000000
  0.166667  0.000000  0.500000      6.000000
  0.333333  0.000000  0.500000      6.000000
  0.500000  0.000000  0.500000      3.000000
  0.166667  0.166667  0.500000      6.000000
  0.333333  0.166667  0.500000     12.000000
  0.333333  0.333333  0.500000      2.000000

 Following cartesian coordinates:
            Coordinates               Weight
  0.000000  0.000000  0.000000      1.000000
  0.034686  0.020026  0.000000      6.000000
  0.069372  0.040052  0.000000      6.000000
  0.104058  0.060078  0.000000      3.000000
  0.034686  0.060078  0.000000      6.000000
  0.069372  0.080104  0.000000     12.000000
  0.069372  0.120155  0.000000      2.000000
  0.000000  0.000000  0.038121      1.000000
  0.034686  0.020026  0.038121      6.000000
  0.069372  0.040052  0.038121      6.000000
  0.104058  0.060078  0.038121      3.000000
  0.034686  0.060078  0.038121      6.000000
  0.069372  0.080104  0.038121     12.000000
  0.069372  0.120155  0.038121      2.000000

 SYSTEM =  NiAl
 POSCAR =  al12 o18

 Startparameter for this run:
   NWRITE =      2    write-flag & timer
   PREC   = normal    normal or accurate (medium, high low for compatibility)
   ISTART =      0    job   : 0-new  1-cont  2-samecut
   ICHARG =      2    charge: 1-file 2-atom 10-const
   ISPIN  =      1    spin polarized calculation?
   LNONCOLLINEAR =      F non collinear calculations
   LSORBIT =      F    spin-orbit coupling
   INIWAV =      1    electr: 0-lowe 1-rand  2-diag
   LASPH  =      F    aspherical Exc in radial PAW
 Electronic Relaxation 1
   ENCUT  =  360.0 eV  26.46 Ry    5.14 a.u.   7.43  7.43 20.29*2*pi/ulx,y,z
   ENINI  =  360.0     initial cutoff
[...]

[...]

 d Force = 0.4523561E-04[ 0.370E-04, 0.535E-04]  d Energy = 0.4525324E-04-0.176E-07
 d Force =-0.4842632E-01[-0.484E-01,-0.484E-01]  d Ewald  =-0.4842631E-01-0.167E-08

 stress matrix after NEB project (eV)
    -66.58895      0.00000      0.00000
      0.00000    -66.58895      0.00000
     -0.00000     -0.00000    -60.93824
  FORCES: max atom, RMS     0.008449    0.006675
  FORCE total and by dimension    0.036558    0.008449
  Stress total and by dimension  112.167932   66.588946
 Steepest descent step on ions:
 trial-energy change:   -0.000045  1 .order   -0.000045   -0.000053   -0.000037
  (g-gl).g = 0.535E-04      g.g   = 0.535E-04  gl.gl    = 0.000E+00
 g(Force)  = 0.535E-04   g(Stress)= 0.000E+00 ortho     = 0.000E+00
 gamma     =   0.00000
 trial     =   1.00000
 opt step  =   3.24698  (harmonic =   3.24698) maximal distance =0.00071125
 next E    =  -228.789998   (d E  =  -0.00009)

[...]

 Broyden mixing:
  rms(total) = 0.13080E-02    rms(broyden)= 0.12743E-02
  rms(prec ) = 0.13302E-02
  weight for this iteration     100.00

[...]

 d Force = 0.3815876E-04[-0.683E-05, 0.831E-04]  d Energy = 0.4089291E-04-0.273E-05
 d Force =-0.1087940E+00[-0.109E+00,-0.109E+00]  d Ewald  =-0.1087939E+00-0.213E-07

[...]

 d Force = 0.7815760E-06[ 0.362E-06, 0.120E-05]  d Energy = 0.7866955E-06-0.512E-08
 d Force = 0.2635169E-01[ 0.263E-01, 0.264E-01]  d Ewald  = 0.2635169E-01 0.102E-09

 stress matrix after NEB project (eV)
    -66.57524      0.00000     -0.00000
      0.00000    -66.57524     -0.00000
      0.00000      0.00000    -60.96365
  FORCES: max atom, RMS     0.000452    0.000361
  FORCE total and by dimension    0.001977    0.000452
  Stress total and by dimension  112.165464   66.575237
 Steepest descent step on ions:
 trial-energy change:   -0.000001  1 .order   -0.000001   -0.000001   -0.000000
  (g-gl).g = 0.387E-05      g.g   = 0.829E-06  gl.gl    = 0.535E-04
 g(Force)  = 0.829E-06   g(Stress)= 0.000E+00 ortho     =-0.304E-05
 gamma     =   0.00000
 trial     =   1.44940
 opt step  =   2.07560  (harmonic =   2.07560) maximal distance =0.00005988
 next E    =  -228.789998   (d E  =  -0.00000)

[...]

 eigenvalue-minimisations  :  2696
 total energy-change (2. order) : 0.1712112E-05  (-0.4298714E-05)
 number of electron     143.9999926 magnetization
 augmentation part       10.0288214 magnetization

[...]

 Broyden mixing:
  rms(total) = 0.29572E-03    rms(broyden)= 0.52140E-05
  rms(prec ) = 0.54920E-05
  weight for this iteration     100.00
  WARNING: grid for Broyden might be to small

 eigenvalues of (default mixing * dielectric matrix)
  average eigenvalue GAMMA=   1.7980
  2.8658  2.1013  1.3740  0.8510

[...]

--------------------------------------- Iteration      5(   6)  ---------------------------------------

 eigenvalue-minimisations  :  1520
 total energy-change (2. order) :-0.3478817E-08  (-0.1011098E-09)
 number of electron     143.9999926 magnetization
 augmentation part       10.0288200 magnetization

 Free energy of the ion-electron system (eV)
  alpha Z        PSCENC =       243.67775989
  Ewald energy   TEWEN  =     -7125.05164059
  -Hartree energ DENC   =     -2256.37141444
  -exchange      EXHF   =         0.00000000
  -V(xc)+E(xc)   XCENC  =       192.67625418
  PAW double counting   =     14011.46247397   -13618.10396074
  entropy T*S    EENTRO =        -0.00000000
  eigenvalues    EBANDS =       -88.40964338
  atomic energy  EATOM  =      8418.23244399
  Solvation  Ediel_sol  =         0.00000000
  free energy    TOTEN  =      -221.88772713 eV

  energy without entropy =     -221.88772713  energy(sigma->0) =     -221.88772713

 average (electrostatic) potential at core
  the test charge radii are     1.0406  0.6768
  (the norm of the test charge is              1.0000)
       1 -49.3585       2 -49.3585       3 -49.3585       4 -49.3585       5 -49.3585
       6 -49.3585       7 -49.3584       8 -49.3584       9 -49.3584      10 -49.3584
      11 -49.3585      12 -49.3584      13-112.9002      14-112.9002      15-112.9002
      16-112.9002      17-112.9002      18-112.9002      19-112.9001      20-112.9002
      21-112.9001      22-112.9001      23-112.9002      24-112.9002      25-112.9002
      26-112.9001      27-112.9002      28-112.9002      29-112.9001      30-112.9001

 E-fermi :   6.0843     XC(G=0): -11.5543     alpha+bet :-16.2270

 Fermi energy:         6.0843205532

[...]

 k-point    14 :       0.3333    0.3333    0.5000
  band No.  band energies     occupation
      1     -12.0956      2.00000
      2     -12.0956      2.00000
      3     -12.0956      2.00000
      4     -12.0956      2.00000
      5     -12.0956      2.00000
      6     -12.0956      2.00000
      7     -11.3175      2.00000
      8     -11.3175      2.00000
      9     -11.3175      2.00000
     10     -11.3175      2.00000
     11     -11.3174      2.00000
     12     -11.3174      2.00000
     13     -10.7336      2.00000
     14     -10.7336      2.00000
     15     -10.7335      2.00000
     16     -10.7335      2.00000
     17     -10.7335      2.00000
     18     -10.7335      2.00000
     19      -0.0582      2.00000
     20      -0.0582      2.00000
     21      -0.0582      2.00000
     22      -0.0582      2.00000
     23      -0.0581      2.00000
     24      -0.0581      2.00000
     25       0.5349      2.00000
     26       0.5350      2.00000
     27       0.5350      2.00000
     28       0.5350      2.00000
     29       0.5350      2.00000
     30       0.5350      2.00000
     31       1.7569      2.00000
     32       1.7569      2.00000
     33       1.7569      2.00000
     34       1.7570      2.00000
     35       1.7571      2.00000
     36       1.7571      2.00000
     37       2.1567      2.00000
     38       2.1567      2.00000
     39       2.1567      2.00000
     40       2.1567      2.00000
     41       2.1567      2.00000
     42       2.1567      2.00000
     43       3.7077      2.00000
     44       3.7077      2.00000
     45       3.7078      2.00000
     46       3.7079      2.00000
     47       3.7079      2.00000
     48       3.7079      2.00000
     49       4.1045      2.00000
     50       4.1045      2.00000
     51       4.1046      2.00000
     52       4.1046      2.00000
     53       4.1047      2.00000
     54       4.1047      2.00000
     55       4.5116      2.00000
     56       4.5116      2.00000
     57       4.5117      2.00000
     58       4.5117      2.00000
     59       4.5117      2.00000
     60       4.5118      2.00000
[...]
     74      14.7787      0.00000
     75      14.7788      0.00000
     76      14.7788      0.00000
     77      14.7788      0.00000
     78      14.7789      0.00000
     79      15.3989      0.00000
     80      15.3989      0.00000
     81      15.3990      0.00000
     82      15.3990      0.00000
     83      15.3990      0.00000
     84      15.3990      0.00000
     85      16.0530      0.00000
     86      16.0531      0.00000
     87      16.0531      0.00000
     88      16.0531      0.00000

 soft charge-density along one line, spin component            1
         0         1         2         3         4         5         6         7         8         9
 total charge-density along one line

------------------------ aborting loop because EDIFF is reached ----------------------------------------

         DFTD3 V3.0 Rev 1
 Edisp (eV)   -6.90227

 E6    (eV) :    -4.2961
 E8    (eV) :    -2.6062
 % E8        : 37.76
 only isotrope contributions calculated
  for stress because ISIF=1 (only pressure is correct)

  FORCE on cell =-STRESS in cart. coord.  units (eV):
  Direction    XX          YY          ZZ          XY          YZ          ZX
  Alpha Z   243.67776   243.67776   243.67776
  Ewald   -2347.79498 -2347.79498 -2429.48508     0.00000     0.00000    -0.00001
  Hartree   741.68387   741.68385   773.00368    -0.00002    -0.00000    -0.00000
  E(xc)    -676.55346  -676.55320  -676.32541     0.00000     0.00010     0.00013
  Local   -1608.47396 -1608.46740 -1572.41490     0.00647     0.00160     0.00091
  n-local   529.60895   529.60895   529.60895     0.00000     0.00000     0.00000
  augment   318.07473   318.07473   318.07473     0.00000     0.00000     0.00000
  Kinetic  2742.01047  2738.54605  2759.92082     0.32368     0.04301     0.18265
  Fock        0.00000     0.00000     0.00000     0.00000     0.00000     0.00000
  vdW        -7.08055    -7.08055    -7.02329     0.00000     0.00000    -0.00000
  Total     -66.57599   -66.57599   -60.96275     0.00000     0.00000     0.00000
  in kB    -406.72036  -406.72036  -372.42847     0.00000     0.00000     0.00000

 VOLUME and BASIS-vectors are now :
  energy-cutoff  :      360.00
  volume of cell :      262.26
      direct lattice vectors                 reciprocal lattice vectors
     4.805027962  0.000000000  0.000000000     0.208115334  0.120155444 -0.000000000
    -2.402513981  4.161276281  0.000000000     0.000000000  0.240310888  0.000000000
     0.000000000  0.000000000 13.116253853     0.000000000 -0.000000000  0.076241281

  length of vectors
     4.805027962  4.805027962 13.116253853     0.240310888  0.240310888  0.076241281

 FORCES acting on ions
    electron-ion (+dipol)            ewald-force                    non-local-force                 convergence-correction
   -.720E-04 -.138E-03 0.149E+02   0.793E-06 0.240E-06 -.160E+02   -.146E-17 0.325E-18 0.118E+01   0.332E-09 -.377E-09 0.352E-05
   0.111E-03 0.213E-03 -.149E+02   0.368E-05 -.512E-06 0.160E+02   0.108E-17 0.867E-18 -.118E+01   -.492E-09 0.945E-10 -.328E-05
   -.116E-03 -.197E-03 0.149E+02   0.129E-05 -.351E-05 -.160E+02   0.152E-17 -.434E-18 0.118E+01   0.494E-09 -.987E-10 0.330E-05
   0.763E-04 0.143E-03 -.149E+02   0.214E-05 0.271E-05 0.160E+02   0.358E-17 0.000E+00 -.118E+01   -.333E-09 0.378E-09 -.350E-05
   -.719E-04 -.135E-03 0.149E+02   -.196E-05 0.613E-05 -.160E+02   -.347E-17 -.228E-17 0.118E+01   0.330E-09 -.379E-09 0.326E-05
   0.114E-03 0.207E-03 -.149E+02   -.237E-05 -.365E-06 0.160E+02   0.130E-17 0.434E-18 -.118E+01   -.493E-09 0.985E-10 -.369E-05
   -.114E-03 -.207E-03 0.149E+02   -.641E-05 -.278E-06 -.160E+02   0.217E-17 -.130E-17 0.118E+01   0.495E-09 -.946E-10 0.344E-05
   0.670E-04 0.138E-03 -.149E+02   0.113E-04 0.428E-05 0.160E+02   -.255E-17 0.108E-17 -.118E+01   -.331E-09 0.377E-09 -.368E-05
   -.809E-04 -.138E-03 0.149E+02   0.509E-05 -.908E-05 -.160E+02   -.466E-17 -.651E-18 0.118E+01   0.333E-09 -.382E-09 0.367E-05
   0.112E-03 0.201E-03 -.149E+02   -.118E-06 0.549E-05 0.160E+02   0.260E-17 0.434E-18 -.118E+01   -.496E-09 0.961E-10 -.347E-05
   -.116E-03 -.209E-03 0.149E+02   0.298E-05 0.148E-04 -.160E+02   0.282E-17 -.173E-17 0.118E+01   0.492E-09 -.960E-10 0.371E-05
   0.721E-04 0.139E-03 -.149E+02   -.350E-05 -.580E-05 0.160E+02   -.759E-18 0.867E-18 -.118E+01   -.331E-09 0.381E-09 -.326E-05
   -.310E+02 -.269E-03 0.143E-04   0.316E+02 0.135E-04 0.191E-04   -.646E+00 0.390E-17 0.152E-17   -.408E-04 -.453E-08 -.241E-06
   -.155E+02 0.268E+02 0.782E-03   0.158E+02 -.274E+02 0.497E-04   -.323E+00 0.559E+00 -.434E-18   -.204E-04 0.353E-04 0.276E-06
   0.155E+02 -.268E+02 0.940E-05   -.158E+02 0.274E+02 0.240E-04   0.323E+00 -.559E+00 0.737E-17   0.204E-04 -.353E-04 -.241E-06
   0.155E+02 0.268E+02 0.105E-04   -.158E+02 -.274E+02 0.236E-04   0.323E+00 0.559E+00 -.390E-17   0.204E-04 0.353E-04 -.241E-06
   -.155E+02 -.268E+02 0.791E-03   0.158E+02 0.274E+02 0.522E-04   -.323E+00 -.559E+00 0.000E+00   -.204E-04 -.353E-04 0.276E-06
   0.310E+02 0.234E-03 0.773E-03   -.316E+02 -.786E-05 0.526E-04   0.646E+00 0.173E-16 -.152E-17   0.408E-04 0.499E-08 0.277E-06
   -.310E+02 -.290E-03 0.984E-03   0.316E+02 0.996E-05 0.164E-03   -.646E+00 0.434E-17 -.108E-17   -.408E-04 -.401E-08 -.302E-06
   -.155E+02 0.268E+02 -.281E-03   0.158E+02 -.274E+02 0.144E-03   -.323E+00 0.559E+00 -.217E-17   -.204E-04 0.353E-04 -.518E-06
   0.155E+02 -.268E+02 0.985E-03   -.158E+02 0.274E+02 0.153E-03   0.323E+00 -.559E+00 0.000E+00   0.204E-04 -.353E-04 -.301E-06
   0.155E+02 0.268E+02 0.981E-03   -.158E+02 -.274E+02 0.156E-03   0.323E+00 0.559E+00 -.867E-18   0.204E-04 0.353E-04 -.302E-06
   -.155E+02 -.268E+02 -.275E-03   0.158E+02 0.274E+02 0.141E-03   -.323E+00 -.559E+00 -.434E-17   -.204E-04 -.353E-04 -.517E-06
   0.310E+02 0.227E-03 -.290E-03   -.316E+02 -.430E-05 0.146E-03   0.646E+00 -.173E-16 -.499E-17   0.408E-04 0.465E-08 -.517E-06
   -.310E+02 -.352E-03 -.163E-02   0.316E+02 0.403E-04 -.347E-03   -.646E+00 -.304E-17 0.867E-18   -.408E-04 -.567E-08 0.542E-06
   -.155E+02 0.268E+02 -.355E-03   0.158E+02 -.274E+02 -.847E-04   -.323E+00 0.559E+00 -.347E-17   -.204E-04 0.353E-04 0.241E-06
   0.155E+02 -.268E+02 -.163E-02   -.158E+02 0.274E+02 -.352E-03   0.323E+00 -.559E+00 -.304E-17   0.204E-04 -.353E-04 0.543E-06
   0.155E+02 0.268E+02 -.165E-02   -.158E+02 -.274E+02 -.350E-03   0.323E+00 0.559E+00 0.304E-17   0.204E-04 0.353E-04 0.543E-06
   -.155E+02 -.268E+02 -.356E-03   0.158E+02 0.274E+02 -.833E-04   -.323E+00 -.559E+00 0.520E-17   -.204E-04 -.353E-04 0.241E-06
   0.310E+02 0.258E-03 -.360E-03   -.316E+02 0.311E-04 -.915E-04   0.646E+00 0.173E-16 -.130E-17   0.408E-04 0.454E-08 0.241E-06
   -.286E-04 -.962E-03 -.163E-02   0.711E-14 0.574E-13 0.193E-12   0.666E-15 0.239E-15 0.657E-15   0.685E-12 -.470E-11 -.129E-10

 POSITION                                       TOTAL-FORCE (eV/Angst)
     -0.00000      0.00000      1.93922        -0.000000      0.000000      0.000000
     -0.00000      2.77418      0.24683         0.000000     -0.000000     -0.000000
     -0.00000      2.77418      4.12526        -0.000000      0.000000      0.000000
      2.40251      1.38709      2.43287        -0.000000     -0.000000     -0.000000
      2.40251      1.38709      6.31130        -0.000000      0.000000      0.000000
     -0.00000      0.00000      4.61891        -0.000000     -0.000000     -0.000000
     -0.00000      0.00000      8.49734         0.000000      0.000000      0.000000
     -0.00000      2.77418      6.80495        -0.000000     -0.000000     -0.000000
     -0.00000      2.77418     10.68339        -0.000000      0.000000      0.000000
      2.40251      1.38709      8.99100        -0.000000     -0.000000     -0.000000
      2.40251      1.38709     12.86943         0.000000      0.000000      0.000000
     -0.00000      0.00000     11.17704        -0.000000     -0.000000     -0.000000
      1.47058      0.00000      3.27906         0.000085      0.000000     -0.000000
      3.13781      0.11353      1.09302         0.000043     -0.000074     -0.000000
      4.06974      1.27356      3.27906        -0.000043      0.000074     -0.000000
      1.66722      2.88771      3.27906        -0.000043     -0.000074      0.000000
      3.13781      2.66065      1.09302         0.000043      0.000074     -0.000000
      0.93193      1.38709      1.09302        -0.000085      0.000000      0.000000
      3.87310      1.38709      7.65115         0.000085      0.000000     -0.000000
      0.73529      1.50062      5.46511         0.000043     -0.000074      0.000000
      1.66722      2.66065      7.65115        -0.000043      0.000074     -0.000000
      1.66722      0.11353      7.65115        -0.000043     -0.000074      0.000000
      0.73529      4.04775      5.46511         0.000043      0.000074     -0.000000
     -1.47058      2.77418      5.46511        -0.000085      0.000000      0.000000
      1.47058      2.77418     12.02323         0.000085     -0.000000     -0.000000
     -1.66722      2.88771      9.83719         0.000043     -0.000074     -0.000000
     -0.73529      4.04775     12.02323        -0.000043      0.000074      0.000000
     -0.73529      1.50062     12.02323        -0.000043     -0.000074      0.000000
      0.73529      1.27356      9.83719         0.000043      0.000074     -0.000000
      3.33444      0.00000      9.83719        -0.000085      0.000000      0.000000
    total drift:                               -0.000029     -0.000962     -0.001631

  FREE ENERGIE OF THE ION-ELECTRON SYSTEM (eV)
  free  energy   TOTEN  =      -228.78999804 eV

  energy  without entropy=     -228.78999804  energy(sigma->0) =     -228.78999804

 d Force = 0.9208038E-07[ 0.276E-07, 0.157E-06]  d Energy = 0.1158577E-06-0.238E-07
 d Force = 0.1138173E-01[ 0.114E-01, 0.114E-01]  d Ewald  = 0.1138173E-01-0.569E-10

 stress matrix after NEB project (eV)
    -66.57599      0.00000      0.00000
      0.00000    -66.57599      0.00000
      0.00000      0.00000    -60.96275
  FORCES: max atom, RMS     0.000085    0.000066
  FORCE total and by dimension    0.000361    0.000085
  Stress total and by dimension  112.165866   66.575988

 reached required accuracy - stopping structural energy minimisation