 vasp.6.2.1 16May21 (build Jun 16 2021 03:23:30) complex
 executed on             LinuxPGI date 2022.04.24  18:26:50

 INCAR:
   SYSTEM = NiAl
   ISTART = 0
   EDIFF = 1E-7
   NELMIN = 6
   IVDW = 12
   LWAVE = .FALSE.
   LCHARG = .FALSE.
   LREAL = Auto
   NCORE = 1
   LPLANE = .TRUE.
   ENCUT = 360.00 eV
   ISMEAR = 0
   SIGMA = 0.05

 POTCAR:    PAW Ni_GW 31Mar2010
 POTCAR:    PAW O_GW 19Mar2012
 POTCAR:    PAW Ni_GW 31Mar2010
   VRHFIN =Ni:

   TITEL  = PAW Ni_GW 31Mar2010
   POMASS =   58.690; ZVAL   =   10.000    mass and valenz
   ENMAX  =  357.323; ENMIN  =  267.992 eV

 POTCAR:    PAW O_GW 19Mar2012
   VRHFIN =O: s2p4

   TITEL  = PAW O_GW 19Mar2012
   POMASS =   16.000; ZVAL   =    6.000    mass and valenz
   ENMAX  =  434.431; ENMIN  =  325.824 eV

 Optimization of the real space projectors (new method)

 maximal supplied QI-value         = 16.25
 optimisation between [QCUT,QGAM] = [  9.59, 19.34] = [ 25.75,104.73] Ry
 Optimized for a Real-space Cutoff    1.46 Angstroem

   l    n(q)    QCUT    max X(q) W(low)/X(q) W(high)/X(q)  e(spline)
   2      7     9.588    94.285    0.33E-03    0.50E-03    0.16E-06
   2      7     9.588    92.549    0.33E-03    0.50E-03    0.16E-06
   0      8     9.588    17.118    0.28E-04    0.17E-03    0.57E-07
   0      8     9.588     8.062    0.24E-04    0.17E-03    0.61E-07
   1      8     9.588     4.910    0.48E-03    0.22E-03    0.79E-07
   1      8     9.588     3.344    0.32E-03    0.14E-03    0.56E-07
   3      7     9.588     5.513    0.55E-04    0.16E-03    0.12E-06
 Optimization of the real space projectors (new method)

 maximal supplied QI-value         = 23.62
 optimisation between [QCUT,QGAM] = [  9.68, 19.37] = [ 26.27,105.06] Ry
 Optimized for a Real-space Cutoff    2.14 Angstroem

   l    n(q)    QCUT    max X(q) W(low)/X(q) W(high)/X(q)  e(spline)
   0     13     9.685   116.464    0.15E-03    0.15E-03    0.47E-05
   0     13     9.685   116.329    0.15E-03    0.15E-03    0.46E-05
   0     13     9.685     0.942    0.20E-04    0.50E-04    0.17E-05
   1     12     9.685    29.046    0.36E-03    0.11E-02    0.25E-04
   1     12     9.685    24.247    0.38E-03    0.11E-02    0.26E-04
   1     12     9.685     2.381    0.13E-03    0.38E-03    0.78E-05
   2     12     9.685     2.237    0.60E-05    0.28E-04    0.14E-05
   2     12     9.685     1.850    0.17E-04    0.70E-04    0.25E-05
  PAW Ni_GW 31Mar2010                   :
  PAW O_GW 19Mar2012                    :

 POSCAR: New structure
  positions in direct lattice
  velocities in cartesian coordinates
 exchange correlation table for  LEXCH =        8
   RHO(1)=    0.500       N(1)  =     2000
   RHO(2)=  100.500       N(2)  =     4000

 VTST: version 4.1, (05/19/21)

 CHAIN: initializing optimizer

 OPT: Using VASP Dynamics algorithm
 CHAIN: Read ICHAIN             0

 POSCAR: New structure
  positions in direct lattice
  velocities in cartesian coordinates

 ion  position               nearest neighbor table
   1  0.000  0.000  0.000- 126 1.83 130 1.83 146 1.83 150 1.83 226 1.83 230 1.83 246 1.83 250 1.83
                             6 2.11  21 2.11  26 2.11 101 2.11   2 2.11   5 2.11 102 2.98 105 2.98
   2  0.000  0.000  0.200- 127 1.83 147 1.83 227 1.83 247 1.83 226 1.83 146 1.83 246 1.83 126 1.83
                             3 2.11  27 2.11 102 2.11   1 2.11   7 2.11  22 2.11   8 2.98  28 2.98
   3  0.000  0.000  0.400- 127 1.83 128 1.83 147 1.83 148 1.83 227 1.83 228 1.83 247 1.83 248 1.83
                             2 2.11  28 2.11 103 2.11   4 2.11   8 2.11  23 2.11  27 2.98  22 2.98
   4  0.000  0.000  0.600- 128 1.83 129 1.83 148 1.83 149 1.83 228 1.83 229 1.83 248 1.83 249 1.83
                             5 2.11  29 2.11 104 2.11   3 2.11   9 2.11  24 2.11  10 2.98  30 2.98
   5  0.000  0.000  0.800- 129 1.83 149 1.83 229 1.83 249 1.83 130 1.83 230 1.83 150 1.83 250 1.83
                             4 2.11  30 2.11 105 2.11   1 2.11  10 2.11  25 2.11  29 2.98  24 2.98
   6  0.000  0.200  0.000- 131 1.83 135 1.83 231 1.83 235 1.83 226 1.83 230 1.83 126 1.83 130 1.83
                            11 2.11  31 2.11 106 2.11   7 2.11  10 2.11   1 2.11  12 2.98  15 2.98
   7  0.000  0.200  0.200- 132 1.83 232 1.83 127 1.83 227 1.83 231 1.83 131 1.83 226 1.83 126 1.83
                             8 2.11  12 2.11   2 2.11   6 2.11  32 2.11 107 2.11  13 2.98  11 2.98
   8  0.000  0.200  0.400- 132 1.83 133 1.83 232 1.83 233 1.83 227 1.83 228 1.83 127 1.83 128 1.83
                             7 2.11  13 2.11   9 2.11   3 2.11  33 2.11 108 2.11  12 2.98  14 2.98
   9  0.000  0.200  0.600- 133 1.83 134 1.83 233 1.83 234 1.83 228 1.83 229 1.83 128 1.83 129 1.83
                            10 2.11  14 2.11   4 2.11   8 2.11  34 2.11 109 2.11  15 2.98  13 2.98
  10  0.000  0.200  0.800- 134 1.83 234 1.83 135 1.83 229 1.83 129 1.83 235 1.83 130 1.83 230 1.83
                             9 2.11  15 2.11   5 2.11   6 2.11  35 2.11 110 2.11  14 2.98  11 2.98
  11  0.000  0.400  0.000- 131 1.83 135 1.83 136 1.83 140 1.83 231 1.83 235 1.83 236 1.83 240 1.83
                             6 2.11  36 2.11 111 2.11  12 2.11  15 2.11  16 2.11  10 2.98   7 2.98
  12  0.000  0.400  0.200- 132 1.83 137 1.83 232 1.83 237 1.83 231 1.83 136 1.83 236 1.83 131 1.83
                             7 2.11  13 2.11  11 2.11  17 2.11  37 2.11 112 2.11   8 2.98   6 2.98
  13  0.000  0.400  0.400- 132 1.83 133 1.83 137 1.83 138 1.83 232 1.83 233 1.83 237 1.83 238 1.83
                             8 2.11  12 2.11  14 2.11  18 2.11  38 2.11 113 2.11   7 2.98   9 2.98
  14  0.000  0.400  0.600- 133 1.83 134 1.83 138 1.83 139 1.83 233 1.83 234 1.83 238 1.83 239 1.83
                             9 2.11  15 2.11  13 2.11  19 2.11  39 2.11 114 2.11  10 2.98   8 2.98
  15  0.000  0.400  0.800- 134 1.83 139 1.83 234 1.83 239 1.83 135 1.83 235 1.83 140 1.83 240 1.83
                            10 2.11  14 2.11  11 2.11  20 2.11  40 2.11 115 2.11   9 2.98   6 2.98
  16  0.000  0.600  0.000- 136 1.83 140 1.83 141 1.83 145 1.83 236 1.83 240 1.83 241 1.83 245 1.83
                            21 2.11  41 2.11 116 2.11  17 2.11  20 2.11  11 2.11  22 2.98  25 2.98
  17  0.000  0.600  0.200- 137 1.83 142 1.83 237 1.83 242 1.83 236 1.83 141 1.83 241 1.83 136 1.83
                            18 2.11  22 2.11  12 2.11  16 2.11  42 2.11 117 2.11  23 2.98  21 2.98
  18  0.000  0.600  0.400- 137 1.83 138 1.83 142 1.83 143 1.83 237 1.83 238 1.83 242 1.83 243 1.83
                            17 2.11  23 2.11  19 2.11  13 2.11  43 2.11 118 2.11  22 2.98  24 2.98
  19  0.000  0.600  0.600- 138 1.83 139 1.83 143 1.83 144 1.83 238 1.83 239 1.83 243 1.83 244 1.83
                            20 2.11  24 2.11  14 2.11  18 2.11  44 2.11 119 2.11  25 2.98  23 2.98
  20  0.000  0.600  0.800- 139 1.83 144 1.83 239 1.83 244 1.83 140 1.83 240 1.83 145 1.83 245 1.83
                            19 2.11  25 2.11  15 2.11  16 2.11  45 2.11 120 2.11  24 2.98  21 2.98
  21  0.000  0.800  0.000- 141 1.83 145 1.83 241 1.83 245 1.83 146 1.83 150 1.83 246 1.83 250 1.83
                            16 2.11  46 2.11 121 2.11   1 2.11  22 2.11  25 2.11  17 2.98  20 2.98
  22  0.000  0.800  0.200- 142 1.83 242 1.83 147 1.83 241 1.83 141 1.83 247 1.83 246 1.83 146 1.83
                            17 2.11  23 2.11  21 2.11   2 2.11  47 2.11 122 2.11  18 2.98  16 2.98
  23  0.000  0.800  0.400- 142 1.83 143 1.83 242 1.83 243 1.83 147 1.83 148 1.83 247 1.83 248 1.83
                            18 2.11  22 2.11   3 2.11  24 2.11  48 2.11 123 2.11  17 2.98  19 2.98
  24  0.000  0.800  0.600- 143 1.83 144 1.83 243 1.83 244 1.83 148 1.83 149 1.83 248 1.83 249 1.83
                            19 2.11  25 2.11  23 2.11   4 2.11  49 2.11 124 2.11  20 2.98  18 2.98
  25  0.000  0.800  0.800- 144 1.83 244 1.83 149 1.83 145 1.83 245 1.83 249 1.83 150 1.83 250 1.83
                            20 2.11  24 2.11  21 2.11   5 2.11  50 2.11 125 2.11  19 2.98  16 2.98
  26  0.200  0.000  0.000- 151 1.83 155 1.83 171 1.83 175 1.83 126 1.83 130 1.83 146 1.83 150 1.83
                            51 2.11  46 2.11   1 2.11  27 2.11  30 2.11  31 2.11  52 2.98  55 2.98
  27  0.200  0.000  0.200- 152 1.83 172 1.83 171 1.83 151 1.83 127 1.83 147 1.83 146 1.83 126 1.83
                            28 2.11  52 2.11   2 2.11  32 2.11  47 2.11  26 2.11  53 2.98  72 2.98
  28  0.200  0.000  0.400- 152 1.83 153 1.83 172 1.83 173 1.83 127 1.83 128 1.83 147 1.83 148 1.83
                            27 2.11  53 2.11  29 2.11  33 2.11  48 2.11   3 2.11  52 2.98  73 2.98
  29  0.200  0.000  0.600- 153 1.83 154 1.83 173 1.83 174 1.83 128 1.83 129 1.83 148 1.83 149 1.83
                            30 2.11  54 2.11   4 2.11  34 2.11  49 2.11  28 2.11  55 2.98  74 2.98
  30  0.200  0.000  0.800- 154 1.83 174 1.83 155 1.83 175 1.83 129 1.83 149 1.83 130 1.83 150 1.83
                            29 2.11  55 2.11   5 2.11  35 2.11  50 2.11  26 2.11  54 2.98  75 2.98
  31  0.200  0.200  0.000- 156 1.83 160 1.83 151 1.83 155 1.83 131 1.83 135 1.83 126 1.83 130 1.83
                            36 2.11  56 2.11  32 2.11  35 2.11   6 2.11  26 2.11  61 2.98  60 2.98
  32  0.200  0.200  0.200- 157 1.83 152 1.83 156 1.83 132 1.83 151 1.83 131 1.83 127 1.83 126 1.83
                            57 2.11  33 2.11  37 2.11  31 2.11   7 2.11  27 2.11  62 2.98  38 2.98
  33  0.200  0.200  0.400- 157 1.83 158 1.83 152 1.83 153 1.83 132 1.83 133 1.83 127 1.83 128 1.83
                            58 2.11  32 2.11  38 2.11   8 2.11  34 2.11  28 2.11  63 2.98  57 2.98
  34  0.200  0.200  0.600- 158 1.83 159 1.83 153 1.83 154 1.83 133 1.83 134 1.83 128 1.83 129 1.83
                            59 2.11  35 2.11  39 2.11  33 2.11   9 2.11  29 2.11  64 2.98  40 2.98
  35  0.200  0.200  0.800- 159 1.83 154 1.83 134 1.83 160 1.83 155 1.83 129 1.83 135 1.83 130 1.83
                            60 2.11  34 2.11  40 2.11  31 2.11  10 2.11  30 2.11  65 2.98  59 2.98
  36  0.200  0.400  0.000- 156 1.83 160 1.83 161 1.83 165 1.83 131 1.83 135 1.83 136 1.83 140 1.83
                            31 2.11  61 2.11  37 2.11  40 2.11  41 2.11  11 2.11  56 2.98  65 2.98
  37  0.200  0.400  0.200- 157 1.83 162 1.83 161 1.83 156 1.83 132 1.83 137 1.83 136 1.83 131 1.83
                            62 2.11  32 2.11  38 2.11  36 2.11  12 2.11  42 2.11  63 2.98  57 2.98
  38  0.200  0.400  0.400- 157 1.83 158 1.83 162 1.83 163 1.83 132 1.83 133 1.83 137 1.83 138 1.83
                            63 2.11  33 2.11  37 2.11  13 2.11  39 2.11  43 2.11  32 2.98  58 2.98
  39  0.200  0.400  0.600- 158 1.83 159 1.83 163 1.83 164 1.83 133 1.83 134 1.83 138 1.83 139 1.83
                            64 2.11  34 2.11  40 2.11  38 2.11  14 2.11  44 2.11  65 2.98  59 2.98
  40  0.200  0.400  0.800- 159 1.83 164 1.83 160 1.83 165 1.83 134 1.83 139 1.83 135 1.83 140 1.83
                            65 2.11  35 2.11  39 2.11  36 2.11  15 2.11  45 2.11  34 2.98  60 2.98
  41  0.200  0.600  0.000- 161 1.83 165 1.83 166 1.83 170 1.83 136 1.83 140 1.83 141 1.83 145 1.83
                            46 2.11  66 2.11  42 2.11  45 2.11  16 2.11  36 2.11  71 2.98  70 2.98
  42  0.200  0.600  0.200- 162 1.83 167 1.83 166 1.83 161 1.83 137 1.83 142 1.83 141 1.83 136 1.83
[...]
   -.671E-12 0.520E-12 0.116E-11   -.796E-12 -.142E-12 -.568E-13   0.396E-24 0.220E-24 0.490E-24   -.542E-13 0.250E-12 -.389E-13
   -.588E-12 0.846E-12 0.390E-10   -.725E-12 -.178E-13 -.101E-09   0.151E-24 0.905E-25 0.436E-24   -.111E-12 -.299E-12 -.490E-12
   0.112E-12 0.382E-12 -.226E-10   -.789E-12 -.191E-12 0.100E-09   -.303E-24 -.210E-24 -.241E-24   -.812E-12 -.120E-12 -.879E-13
   0.496E-13 0.436E-12 0.201E-10   -.277E-12 -.139E-12 -.100E-09   -.622E-24 -.598E-24 -.267E-24   -.644E-12 0.180E-12 0.122E-11
   -.187E-12 0.191E-12 -.384E-10   -.568E-13 -.256E-12 0.101E-09   0.210E-24 0.355E-24 -.355E-24   -.381E-12 0.512E-12 -.634E-12
   0.126E-12 0.395E-10 0.206E-11   -.123E-11 -.101E-09 -.284E-13   -.221E-24 -.582E-24 0.410E-24   -.776E-12 -.511E-12 -.118E-11
   -.497E-12 0.401E-10 0.394E-10   -.801E-12 -.101E-09 -.101E-09   -.283E-24 0.420E-25 -.194E-24   -.131E-12 -.115E-11 -.919E-12
   -.309E-12 0.404E-10 -.228E-10   -.103E-11 -.101E-09 0.100E-09   -.465E-24 -.743E-25 0.339E-25   -.371E-12 -.126E-11 0.175E-12
   0.237E-12 0.401E-10 0.197E-10   -.856E-12 -.101E-09 -.100E-09   -.419E-24 0.497E-24 -.351E-24   -.844E-12 -.654E-12 0.208E-11
   0.513E-13 0.395E-10 -.389E-10   -.963E-12 -.101E-09 0.101E-09   0.105E-24 -.840E-25 -.145E-25   -.661E-12 0.113E-12 -.210E-12
   0.453E-12 -.220E-10 0.224E-11   -.796E-12 0.999E-10 -.302E-13   -.190E-24 0.178E-24 -.278E-24   -.941E-12 -.909E-12 -.152E-11
   -.347E-12 -.227E-10 0.395E-10   -.887E-12 0.100E-09 -.101E-09   0.927E-24 -.258E-24 0.325E-24   -.226E-12 0.796E-13 -.636E-12
   -.669E-12 -.226E-10 -.226E-10   -.102E-11 0.100E-09 0.100E-09   -.185E-24 0.433E-24 0.496E-24   0.418E-14 0.624E-12 0.309E-12
   0.524E-13 -.219E-10 0.195E-10   -.134E-11 0.100E-09 -.100E-09   -.353E-24 0.593E-24 -.614E-25   -.649E-12 -.194E-12 0.229E-11
   0.262E-12 -.218E-10 -.390E-10   -.123E-11 0.100E-09 0.101E-09   0.410E-25 0.136E-24 0.245E-24   -.753E-12 -.538E-12 -.455E-12
   -.118E-12 0.212E-10 0.143E-11   0.416E-12 -.100E-09 0.249E-13   -.905E-26 -.307E-24 -.969E-25   -.297E-12 -.111E-12 -.700E-12
   0.913E-13 0.209E-10 0.389E-10   -.215E-12 -.100E-09 -.101E-09   0.657E-24 -.775E-24 -.905E-25   -.596E-12 0.474E-12 0.522E-12
   -.110E-12 0.211E-10 -.219E-10   -.579E-12 -.100E-09 0.100E-09   0.189E-24 0.863E-24 0.409E-24   -.581E-12 0.330E-12 -.371E-12
   -.182E-12 0.211E-10 0.199E-10   -.405E-12 -.100E-09 -.100E-09   0.693E-24 0.464E-24 0.341E-24   -.437E-12 -.345E-12 0.125E-11
   -.995E-13 0.216E-10 -.391E-10   0.149E-12 -.100E-09 0.101E-09   -.645E-25 0.653E-24 -.759E-24   -.397E-12 -.694E-12 -.764E-12
   -.264E-12 -.400E-10 0.108E-11   0.767E-12 0.101E-09 0.284E-13   0.700E-24 -.110E-24 0.601E-24   -.441E-12 0.116E-11 -.845E-13
   -.129E-12 -.398E-10 0.396E-10   0.679E-12 0.101E-09 -.101E-09   0.683E-24 -.258E-24 -.233E-24   -.490E-12 0.786E-12 -.288E-12
   -.245E-12 -.398E-10 -.221E-10   0.552E-12 0.101E-09 0.100E-09   -.398E-24 0.433E-24 0.428E-24   -.488E-12 0.341E-12 -.378E-12
   -.377E-12 -.406E-10 0.198E-10   0.118E-11 0.101E-09 -.100E-09   0.115E-24 -.388E-24 -.274E-24   -.185E-12 0.895E-12 0.135E-11
   -.304E-12 -.398E-10 -.386E-10   0.597E-12 0.101E-09 0.101E-09   0.447E-24 0.197E-24 -.423E-24   -.313E-12 0.499E-12 -.646E-12
   0.395E-10 0.603E-12 0.272E-11   -.101E-09 -.156E-12 0.142E-13   0.698E-24 0.433E-24 0.215E-24   0.419E-12 0.246E-12 -.437E-12
   0.393E-10 0.102E-11 0.432E-10   -.101E-09 0.338E-13 -.101E-09   0.282E-24 0.569E-24 0.391E-24   0.500E-12 -.480E-12 -.610E-12
   0.394E-10 0.771E-12 -.212E-10   -.101E-09 -.959E-13 0.100E-09   0.767E-25 0.885E-25 -.108E-23   0.752E-12 -.518E-12 -.341E-12
   0.395E-10 0.470E-12 0.232E-10   -.101E-09 -.238E-12 -.100E-09   -.108E-24 -.477E-24 0.191E-24   0.900E-12 -.489E-13 0.170E-11
   0.392E-10 0.229E-12 -.354E-10   -.101E-09 -.888E-13 0.101E-09   -.249E-24 0.588E-24 -.100E-23   0.110E-11 0.480E-12 -.355E-12
   0.397E-10 0.409E-10 0.457E-11   -.102E-09 -.101E-09 0.675E-13   0.901E-26 -.385E-24 -.131E-24   0.447E-12 -.121E-11 -.159E-11
   0.395E-10 0.411E-10 0.424E-10   -.102E-09 -.101E-09 -.101E-09   0.224E-24 -.953E-24 -.185E-24   0.575E-12 -.145E-11 -.767E-12
   0.394E-10 0.406E-10 -.211E-10   -.102E-09 -.101E-09 0.100E-09   -.125E-24 -.295E-24 -.120E-24   0.774E-12 -.924E-12 0.137E-12
   0.389E-10 0.402E-10 0.219E-10   -.102E-09 -.101E-09 -.100E-09   -.644E-25 0.427E-24 0.326E-24   0.134E-11 -.509E-12 0.250E-11
   0.392E-10 0.401E-10 -.361E-10   -.102E-09 -.101E-09 0.101E-09   0.682E-24 0.488E-24 0.969E-26   0.115E-11 -.256E-12 -.328E-12
   0.399E-10 -.231E-10 0.393E-11   -.102E-09 0.100E-09 0.648E-13   -.497E-25 -.142E-24 -.212E-24   0.417E-12 -.534E-12 -.176E-11
   0.397E-10 -.227E-10 0.419E-10   -.102E-09 0.100E-09 -.101E-09   0.871E-24 -.995E-24 0.347E-24   0.392E-12 0.618E-13 0.793E-13
   0.392E-10 -.227E-10 -.212E-10   -.101E-09 0.100E-09 0.100E-09   0.191E-24 0.284E-24 0.456E-24   0.792E-12 0.641E-12 0.289E-12
   0.390E-10 -.228E-10 0.230E-10   -.101E-09 0.100E-09 -.100E-09   -.891E-24 0.210E-24 -.368E-24   0.901E-12 -.325E-12 0.214E-11
   0.395E-10 -.220E-10 -.359E-10   -.101E-09 0.100E-09 0.101E-09   0.620E-24 0.681E-24 0.210E-24   0.745E-12 -.810E-12 -.798E-12
   0.391E-10 0.206E-10 0.408E-11   -.102E-09 -.100E-09 0.639E-13   -.298E-25 0.196E-24 0.271E-24   0.129E-11 0.612E-12 -.982E-12
   0.392E-10 0.205E-10 0.422E-10   -.101E-09 -.101E-09 -.101E-09   -.577E-25 0.541E-25 0.375E-24   0.109E-11 0.881E-12 0.254E-12
   0.393E-10 0.210E-10 -.208E-10   -.101E-09 -.100E-09 0.100E-09   -.520E-24 -.827E-24 0.433E-24   0.907E-12 0.465E-12 -.101E-12
   0.392E-10 0.214E-10 0.230E-10   -.101E-09 -.100E-09 -.100E-09   0.628E-24 0.646E-25 0.121E-24   0.998E-12 0.196E-12 0.131E-11
   0.392E-10 0.214E-10 -.361E-10   -.101E-09 -.100E-09 0.101E-09   -.127E-24 0.504E-24 -.375E-24   0.901E-12 -.596E-13 -.528E-12
   0.392E-10 -.400E-10 0.357E-11   -.102E-09 0.101E-09 0.121E-12   0.596E-24 -.110E-24 0.123E-23   0.100E-11 0.792E-12 -.294E-12
   0.391E-10 -.403E-10 0.424E-10   -.102E-09 0.101E-09 -.101E-09   0.238E-24 0.202E-24 0.129E-24   0.117E-11 0.903E-12 -.149E-12
   0.391E-10 -.399E-10 -.206E-10   -.102E-09 0.101E-09 0.100E-09   -.158E-24 0.250E-24 0.462E-24   0.128E-11 0.246E-12 -.324E-12
   0.393E-10 -.397E-10 0.228E-10   -.102E-09 0.101E-09 -.100E-09   -.649E-24 -.570E-24 -.617E-24   0.113E-11 0.589E-12 0.141E-11
   0.391E-10 -.396E-10 -.360E-10   -.102E-09 0.101E-09 0.101E-09   -.759E-25 0.937E-25 -.364E-25   0.123E-11 0.550E-12 -.686E-12
   -.217E-10 0.784E-12 -.169E-11   0.999E-10 -.156E-12 -.693E-13   0.821E-24 0.223E-24 0.104E-23   -.252E-12 -.575E-13 -.800E-12
   -.221E-10 0.112E-11 0.343E-10   0.100E-09 0.163E-12 -.101E-09   0.253E-24 -.646E-26 0.110E-23   0.229E-12 -.623E-12 -.262E-13
   -.224E-10 0.773E-12 -.266E-10   0.997E-10 0.253E-13 0.999E-10   -.153E-24 0.155E-24 -.103E-23   0.253E-12 -.601E-12 0.440E-13
   -.224E-10 0.136E-12 0.223E-10   0.100E-09 -.139E-12 -.100E-09   -.211E-24 -.792E-24 0.367E-24   0.454E-12 0.298E-12 0.144E-11
   -.222E-10 0.227E-12 -.439E-10   0.999E-10 0.622E-13 0.101E-09   0.225E-24 0.144E-24 -.286E-24   0.767E-13 0.437E-12 -.726E-12
   -.219E-10 0.387E-10 -.101E-11   0.102E-09 -.101E-09 0.453E-13   -.106E-24 -.818E-25 -.229E-24   -.108E-12 -.560E-12 -.175E-11
   -.217E-10 0.408E-10 0.359E-10   0.101E-09 -.101E-09 -.101E-09   0.126E-24 -.130E-23 -.165E-24   -.190E-12 -.131E-11 -.384E-12
   -.221E-10 0.404E-10 -.259E-10   0.101E-09 -.101E-09 0.100E-09   0.536E-24 0.339E-25 -.194E-25   0.731E-13 -.998E-12 0.686E-12
   -.224E-10 0.397E-10 0.202E-10   0.101E-09 -.101E-09 -.100E-09   0.484E-24 0.113E-24 0.388E-25   0.375E-12 -.443E-12 0.229E-11
   -.222E-10 0.396E-10 -.419E-10   0.100E-09 -.101E-09 0.101E-09   0.316E-24 0.207E-24 0.889E-25   0.237E-12 -.281E-13 -.883E-12
[...]
   0.101E-10 0.203E-11 0.301E-10   0.583E-10 -.151E-13 0.574E-10   0.265E-24 -.302E-23 -.905E-24   0.740E-13 0.992E-12 0.524E-12
   0.105E-10 0.275E-11 -.659E-11   0.583E-10 0.790E-13 0.213E-13   -.110E-23 -.436E-24 -.866E-24   -.355E-12 0.341E-12 0.498E-12
   0.108E-10 0.334E-11 -.391E-10   0.581E-10 -.870E-13 -.574E-10   0.142E-23 -.792E-24 0.218E-23   -.550E-12 -.676E-12 0.142E-12
   0.107E-10 0.325E-11 0.988E-11   0.581E-10 0.178E-13 0.579E-10   0.749E-24 0.256E-23 0.183E-23   -.389E-12 -.801E-12 -.896E-12
   0.105E-10 -.328E-10 -.164E-10   0.587E-10 -.574E-10 -.579E-10   -.509E-24 -.291E-25 -.410E-23   -.355E-12 0.706E-12 0.628E-13
   0.105E-10 -.322E-10 0.302E-10   0.584E-10 -.575E-10 0.575E-10   0.116E-23 -.194E-23 -.724E-24   -.409E-12 -.130E-12 0.396E-12
   0.104E-10 -.325E-10 -.624E-11   0.587E-10 -.574E-10 0.195E-13   -.228E-24 -.119E-23 -.775E-25   -.438E-12 -.276E-12 -.211E-12
   0.105E-10 -.330E-10 -.390E-10   0.590E-10 -.575E-10 -.574E-10   0.540E-24 0.620E-24 0.120E-23   -.506E-12 0.110E-12 0.173E-12
   0.106E-10 -.328E-10 0.966E-11   0.589E-10 -.575E-10 0.579E-10   0.162E-23 0.248E-23 0.297E-23   -.440E-12 0.502E-12 -.469E-12
   0.105E-10 0.153E-10 -.164E-10   0.578E-10 0.581E-10 -.578E-10   0.392E-24 -.530E-24 -.158E-23   -.200E-12 0.376E-12 -.211E-12
   0.107E-10 0.147E-10 0.300E-10   0.580E-10 0.580E-10 0.575E-10   -.643E-24 -.879E-24 0.274E-23   -.548E-12 0.594E-12 0.119E-12
   0.105E-10 0.142E-10 -.657E-11   0.581E-10 0.579E-10 0.249E-13   -.121E-23 0.195E-24 -.204E-23   -.416E-12 0.938E-12 0.208E-12
   0.105E-10 0.149E-10 -.387E-10   0.582E-10 0.580E-10 -.573E-10   -.891E-24 0.731E-24 0.159E-23   -.524E-12 0.556E-12 -.173E-12
   0.105E-10 0.152E-10 0.969E-11   0.584E-10 0.580E-10 0.579E-10   -.465E-24 -.180E-23 -.284E-24   -.429E-12 0.280E-12 -.684E-14
   0.433E-10 0.478E-10 -.194E-09   -.114E-10 0.433E-11 0.919E-12   -.568E-23 -.111E-22 -.201E-22   -.174E-11 -.130E-11 -.267E-11

 POSITION                                       TOTAL-FORCE (eV/Angst)
      0.00000      0.00000      0.00000        -0.000000      0.000000      0.000000
      0.00000      0.00000      2.10830         0.000000     -0.000000     -0.000000
      0.00000      0.00000      4.21660         0.000000      0.000000      0.000000
      0.00000      0.00000      6.32490        -0.000000      0.000000     -0.000000
      0.00000      0.00000      8.43320         0.000000     -0.000000      0.000000
      0.00000      2.10830      0.00000         0.000000     -0.000000     -0.000000
      0.00000      2.10830      2.10830         0.000000     -0.000000      0.000000
      0.00000      2.10830      4.21660         0.000000      0.000000      0.000000
      0.00000      2.10830      6.32490         0.000000      0.000000      0.000000
      0.00000      2.10830      8.43320         0.000000     -0.000000     -0.000000
      0.00000      4.21660      0.00000         0.000000      0.000000      0.000000
      0.00000      4.21660      2.10830         0.000000     -0.000000     -0.000000
      0.00000      4.21660      4.21660         0.000000      0.000000     -0.000000
      0.00000      4.21660      6.32490         0.000000     -0.000000     -0.000000
      0.00000      4.21660      8.43320         0.000000      0.000000      0.000000
      0.00000      6.32490      0.00000         0.000000      0.000000      0.000000
      0.00000      6.32490      2.10830         0.000000     -0.000000     -0.000000
      0.00000      6.32490      4.21660        -0.000000      0.000000     -0.000000
      0.00000      6.32490      6.32490         0.000000     -0.000000     -0.000000
      0.00000      6.32490      8.43320         0.000000      0.000000      0.000000
      0.00000      8.43320      0.00000         0.000000      0.000000      0.000000
      0.00000      8.43320      2.10830         0.000000      0.000000      0.000000
      0.00000      8.43320      4.21660         0.000000      0.000000     -0.000000
      0.00000      8.43320      6.32490         0.000000      0.000000      0.000000
      0.00000      8.43320      8.43320         0.000000     -0.000000      0.000000
      2.10830      0.00000      0.00000        -0.000000     -0.000000      0.000000
      2.10830      0.00000      2.10830         0.000000     -0.000000     -0.000000
      2.10830      0.00000      4.21660        -0.000000     -0.000000      0.000000
      2.10830      0.00000      6.32490        -0.000000     -0.000000     -0.000000
      2.10830      0.00000      8.43320        -0.000000     -0.000000      0.000000
      2.10830      2.10830      0.00000         0.000000      0.000000     -0.000000
      2.10830      2.10830      2.10830        -0.000000      0.000000      0.000000
      2.10830      2.10830      4.21660         0.000000      0.000000      0.000000
      2.10830      2.10830      6.32490        -0.000000      0.000000      0.000000
      2.10830      2.10830      8.43320        -0.000000      0.000000     -0.000000
      2.10830      4.21660      0.00000         0.000000      0.000000      0.000000
      2.10830      4.21660      2.10830         0.000000     -0.000000     -0.000000
      2.10830      4.21660      4.21660         0.000000     -0.000000      0.000000
      2.10830      4.21660      6.32490        -0.000000      0.000000     -0.000000
      2.10830      4.21660      8.43320        -0.000000      0.000000      0.000000
      2.10830      6.32490      0.00000         0.000000      0.000000      0.000000
      2.10830      6.32490      2.10830         0.000000      0.000000     -0.000000
      2.10830      6.32490      4.21660        -0.000000      0.000000     -0.000000
      2.10830      6.32490      6.32490        -0.000000      0.000000     -0.000000
      2.10830      6.32490      8.43320        -0.000000      0.000000      0.000000
      2.10830      8.43320      0.00000         0.000000      0.000000     -0.000000
      2.10830      8.43320      2.10830         0.000000     -0.000000     -0.000000
      2.10830      8.43320      4.21660         0.000000     -0.000000     -0.000000
      2.10830      8.43320      6.32490        -0.000000     -0.000000      0.000000
      2.10830      8.43320      8.43320        -0.000000     -0.000000     -0.000000
      4.21660      0.00000      0.00000        -0.000000     -0.000000      0.000000
      4.21660      0.00000      2.10830        -0.000000     -0.000000     -0.000000
      4.21660      0.00000      4.21660        -0.000000     -0.000000      0.000000
      4.21660      0.00000      6.32490         0.000000      0.000000      0.000000
      4.21660      0.00000      8.43320         0.000000      0.000000     -0.000000
      4.21660      2.10830      0.00000        -0.000000      0.000000     -0.000000
      4.21660      2.10830      2.10830        -0.000000      0.000000      0.000000
      4.21660      2.10830      4.21660        -0.000000      0.000000      0.000000
      4.21660      2.10830      6.32490         0.000000      0.000000      0.000000
      4.21660      2.10830      8.43320        -0.000000      0.000000     -0.000000
[...]
      9.48735      5.27075      1.05415         0.000000      0.000000     -0.000000
      9.48735      5.27075      3.16245         0.000000      0.000000      0.000000
      9.48735      5.27075      5.27075        -0.000000      0.000000      0.000000
      9.48735      5.27075      7.37905         0.000000      0.000000     -0.000000
      9.48735      5.27075      9.48735        -0.000000      0.000000      0.000000
      9.48735      7.37905      1.05415         0.000000      0.000000     -0.000000
      9.48735      7.37905      3.16245        -0.000000     -0.000000      0.000000
      9.48735      7.37905      5.27075        -0.000000     -0.000000      0.000000
      9.48735      7.37905      7.37905        -0.000000     -0.000000     -0.000000
      9.48735      7.37905      9.48735        -0.000000     -0.000000     -0.000000
      9.48735      9.48735      1.05415        -0.000000      0.000000     -0.000000
      9.48735      9.48735      3.16245        -0.000000      0.000000      0.000000
      9.48735      9.48735      5.27075         0.000000      0.000000      0.000000
      9.48735      9.48735      7.37905         0.000000      0.000000     -0.000000
      9.48735      9.48735      9.48735         0.000000      0.000000     -0.000000
    total drift:                                0.000000      0.000000     -0.000000

  FREE ENERGIE OF THE ION-ELECTRON SYSTEM (eV)
  free  energy   TOTEN  =      -509.51703714 eV

  energy  without entropy=     -509.27722930  energy(sigma->0) =     -509.39713322

 stress matrix after NEB project (eV)
   3223.81573      0.00000     -0.00000
     -0.00000   3223.81573     -0.00000
      0.00000     -0.00000   3223.81573
  FORCES: max atom, RMS     0.000000    0.000000
  FORCE total and by dimension    0.000000    0.000000
  Stress total and by dimension 5583.812637 3223.815729