 vasp.6.3.1 04May22 (build Jun  1 2022 15:53:57) complex
 executed on              LinuxNV date 2022.09.12  13:37:13

 INCAR:
   SYSTEM = NiAl
   ISTART = 0
   EDIFF = 1E-7
   NELMIN = 6
   ISIF = 2
   NSW = 40
   IBRION = 2
   POTIM = 0.2
   IVDW = 12
   PREC = Accurate
   LWAVE = .FALSE.
   LCHARG = .FALSE.
   LREAL = Auto
   NCORE = 1
   LPLANE = .TRUE.
   ENCUT = 360.00 eV
   ISMEAR = 0
   SIGMA = 0.05

 POTCAR:    PAW Ni_GW 31Mar2010
 POTCAR:    PAW O_GW 19Mar2012
 POTCAR:    PAW Ni_GW 31Mar2010
   VRHFIN =Ni:

   TITEL  = PAW Ni_GW 31Mar2010
   POMASS =   58.690; ZVAL   =   10.000    mass and valenz
   ENMAX  =  357.323; ENMIN  =  267.992 eV

 POTCAR:    PAW O_GW 19Mar2012
   VRHFIN =O: s2p4

   TITEL  = PAW O_GW 19Mar2012
   POMASS =   16.000; ZVAL   =    6.000    mass and valenz
   ENMAX  =  434.431; ENMIN  =  325.824 eV

 Optimization of the real space projectors (new method)

 maximal supplied QI-value         = 16.25
 optimisation between [QCUT,QGAM] = [  9.59, 19.34] = [ 25.75,104.73] Ry
 Optimized for a Real-space Cutoff    1.64 Angstroem

   l    n(q)    QCUT    max X(q) W(low)/X(q) W(high)/X(q)  e(spline)
   2      9     9.588    94.285    0.11E-03    0.24E-03    0.25E-06
   2      9     9.588    92.549    0.11E-03    0.25E-03    0.25E-06
   0      9     9.588    17.118    0.63E-04    0.22E-04    0.73E-07
   0      9     9.588     8.062    0.52E-04    0.23E-04    0.81E-07
   1      9     9.588     4.910    0.11E-03    0.17E-04    0.12E-06
   1      9     9.588     3.344    0.71E-04    0.11E-04    0.90E-07
   3      8     9.588     5.513    0.79E-05    0.52E-04    0.22E-06
 Optimization of the real space projectors (new method)

 maximal supplied QI-value         = 23.62
 optimisation between [QCUT,QGAM] = [  9.68, 19.37] = [ 26.27,105.06] Ry
 Optimized for a Real-space Cutoff    2.20 Angstroem

   l    n(q)    QCUT    max X(q) W(low)/X(q) W(high)/X(q)  e(spline)
   0     13     9.685   116.464    0.16E-03    0.12E-03    0.46E-05
   0     13     9.685   116.329    0.16E-03    0.11E-03    0.44E-05
   0     13     9.685     0.942    0.20E-04    0.45E-04    0.21E-05
   1     12     9.685    29.046    0.16E-03    0.69E-03    0.31E-04
   1     12     9.685    24.247    0.17E-03    0.72E-03    0.32E-04
   1     12     9.685     2.381    0.58E-04    0.24E-03    0.96E-05
   2     12     9.685     2.237    0.71E-05    0.23E-04    0.15E-05
   2     12     9.685     1.850    0.19E-04    0.60E-04    0.25E-05
  PAW Ni_GW 31Mar2010                   :
  PAW O_GW 19Mar2012                    :

 POSCAR: Ni4 O4
  positions in direct lattice
 exchange correlation table for  LEXCH =        8
   RHO(1)=    0.500       N(1)  =     2000
   RHO(2)=  100.500       N(2)  =     4000

 VTST: version 4.2, (08/11/21)

 CHAIN: initializing optimizer

 OPT: Using VASP Conjugate-Gradient optimizer
 CHAIN: Read ICHAIN             0

 POSCAR: Ni4 O4
  positions in direct lattice

 ion  position               nearest neighbor table
   1  0.000  0.000  0.000- 109 2.11 163 2.11 190 2.11 165 2.11 127 2.11 196 2.11  28 2.98  55 2.98
                            82 2.98  30 2.98  57 2.98  73 2.98  34 2.98  88 2.98 100 2.98  75 2.98
   2  0.000  0.000  0.333- 164 2.11 163 2.11 110 2.11 191 2.11 128 2.11 197 2.11  29 2.98  56 2.98
                            55 2.98  28 2.98  83 2.98  74 2.98  35 2.98  34 2.98  73 2.98  89 2.98
   3  0.000  0.000  0.667- 165 2.11 111 2.11 192 2.11 129 2.11 164 2.11 198 2.11  30 2.98  57 2.98
                            36 2.98  75 2.98  84 2.98  90 2.98 102 2.98  56 2.98  29 2.98  35 2.98
   4  0.000  0.333  0.000- 193 2.11 190 2.11 112 2.11 166 2.11 130 2.11 168 2.11  31 2.98  85 2.98
                            82 2.98  28 2.98  58 2.98  33 2.98 103 2.98 100 2.98  30 2.98  60 2.98
   5  0.000  0.333  0.333- 167 2.11 194 2.11 191 2.11 166 2.11 113 2.11 131 2.11  32 2.98  31 2.98
                            29 2.98  59 2.98  86 2.98  28 2.98  83 2.98  58 2.98  77 2.98 104 2.98
   6  0.000  0.333  0.667- 168 2.11 195 2.11 192 2.11 114 2.11 167 2.11 132 2.11  33 2.98  30 2.98
                            60 2.98  78 2.98  87 2.98  84 2.98  32 2.98 105 2.98 102 2.98  29 2.98
   7  0.000  0.667  0.000- 196 2.11 169 2.11 115 2.11 171 2.11 193 2.11 133 2.11  34 2.98  88 2.98
                            36 2.98 106 2.98  61 2.98  31 2.98  63 2.98  79 2.98  85 2.98  81 2.98
   8  0.000  0.667  0.333- 197 2.11 170 2.11 169 2.11 116 2.11 194 2.11 134 2.11  35 2.98  34 2.98
                            89 2.98 107 2.98  62 2.98  61 2.98  32 2.98  80 2.98  79 2.98  31 2.98
   9  0.000  0.667  0.667- 171 2.11 198 2.11 117 2.11 135 2.11 195 2.11 170 2.11  36 2.98  63 2.98
                            90 2.98  33 2.98 108 2.98  35 2.98  81 2.98  62 2.98  87 2.98  32 2.98
  10  0.333  0.000  0.000- 118 2.11 109 2.11 172 2.11 199 2.11 174 2.11 205 2.11  64 2.98  91 2.98
                            82 2.98  55 2.98  37 2.98  66 2.98  97 2.98  57 2.98  88 2.98  39 2.98
  11  0.333  0.000  0.333- 119 2.11 173 2.11 172 2.11 110 2.11 200 2.11 206 2.11  65 2.98  64 2.98
                            56 2.98  38 2.98  92 2.98  55 2.98  83 2.98  37 2.98  98 2.98  44 2.98
  12  0.333  0.000  0.667- 174 2.11 120 2.11 111 2.11 201 2.11 173 2.11 207 2.11  66 2.98  57 2.98
                            39 2.98  45 2.98  93 2.98  84 2.98  65 2.98  99 2.98  56 2.98  90 2.98
  13  0.333  0.333  0.000- 121 2.11 202 2.11 199 2.11 112 2.11 175 2.11 177 2.11  94 2.98  91 2.98
                            85 2.98  67 2.98  40 2.98  82 2.98  58 2.98  37 2.98  42 2.98  69 2.98
  14  0.333  0.333  0.333- 122 2.11 176 2.11 203 2.11 113 2.11 200 2.11 175 2.11  41 2.98  68 2.98
                            95 2.98  59 2.98  67 2.98  40 2.98  86 2.98  92 2.98  38 2.98  58 2.98
  15  0.333  0.333  0.667- 177 2.11 123 2.11 204 2.11 201 2.11 114 2.11 176 2.11  42 2.98  69 2.98
                            60 2.98  39 2.98  96 2.98  93 2.98  87 2.98  84 2.98  68 2.98  41 2.98
  16  0.333  0.667  0.000- 205 2.11 124 2.11 115 2.11 178 2.11 202 2.11 180 2.11  97 2.98  88 2.98
                            43 2.98  45 2.98  70 2.98  61 2.98  94 2.98  72 2.98  85 2.98  63 2.98
  17  0.333  0.667  0.333- 206 2.11 179 2.11 125 2.11 116 2.11 178 2.11 203 2.11  44 2.98  98 2.98
                            89 2.98  43 2.98  71 2.98  70 2.98  62 2.98  61 2.98  95 2.98  41 2.98
  18  0.333  0.667  0.667- 180 2.11 207 2.11 126 2.11 117 2.11 204 2.11 179 2.11  45 2.98  72 2.98
                            99 2.98  90 2.98  63 2.98  44 2.98  42 2.98  96 2.98  71 2.98  87 2.98
  19  0.667  0.000  0.000- 127 2.11 181 2.11 208 2.11 183 2.11 118 2.11 214 2.11  73 2.98 100 2.98
                            75 2.98 106 2.98  46 2.98  64 2.98  48 2.98  52 2.98  91 2.98  97 2.98
  20  0.667  0.000  0.333- 128 2.11 182 2.11 181 2.11 209 2.11 119 2.11 215 2.11  74 2.98  73 2.98
                           101 2.98 107 2.98  47 2.98  46 2.98  53 2.98  65 2.98  64 2.98  52 2.98
  21  0.667  0.000  0.667- 129 2.11 183 2.11 210 2.11 120 2.11 182 2.11 216 2.11  75 2.98  48 2.98
                           102 2.98  66 2.98 108 2.98  74 2.98  54 2.98  47 2.98  93 2.98  99 2.98
  22  0.667  0.333  0.000- 130 2.11 211 2.11 208 2.11 184 2.11 121 2.11 186 2.11 103 2.98 100 2.98
                            76 2.98  78 2.98  49 2.98  46 2.98  51 2.98  94 2.98  91 2.98  48 2.98
  23  0.667  0.333  0.333- 131 2.11 185 2.11 212 2.11 209 2.11 184 2.11 122 2.11  77 2.98 104 2.98
                           101 2.98  76 2.98  50 2.98  49 2.98  47 2.98  46 2.98  68 2.98  95 2.98
  24  0.667  0.333  0.667- 132 2.11 186 2.11 213 2.11 210 2.11 185 2.11 123 2.11  78 2.98  51 2.98
                           105 2.98 102 2.98  48 2.98  77 2.98  69 2.98  50 2.98  96 2.98  93 2.98
  25  0.667  0.667  0.000- 133 2.11 214 2.11 187 2.11 189 2.11 211 2.11 124 2.11 106 2.98  79 2.98
                            52 2.98 103 2.98  54 2.98  81 2.98  97 2.98  70 2.98  49 2.98  51 2.98
  26  0.667  0.667  0.333- 134 2.11 215 2.11 188 2.11 187 2.11 212 2.11 125 2.11 107 2.98  80 2.98
                            53 2.98  52 2.98  79 2.98 104 2.98  98 2.98  71 2.98  50 2.98  49 2.98
  27  0.667  0.667  0.667- 135 2.11 189 2.11 216 2.11 126 2.11 213 2.11 188 2.11  54 2.98  81 2.98
                           108 2.98  72 2.98  80 2.98  53 2.98  99 2.98 105 2.98  51 2.98  71 2.98
  28  0.000  0.167  0.167- 166 2.11 191 2.11 136 2.11 190 2.11 163 2.11 154 2.11   5 2.98  58 2.98
                            83 2.98   4 2.98   2 2.98   1 2.98  82 2.98  55 2.98  76 2.98 101 2.98
  29  0.000  0.167  0.500- 191 2.11 167 2.11 137 2.11 164 2.11 155 2.11 192 2.11   5 2.98   2 2.98
                            83 2.98  59 2.98  56 2.98 101 2.98   6 2.98  77 2.98  74 2.98  84 2.98
  30  0.000  0.167  0.833- 192 2.11 168 2.11 138 2.11 165 2.11 190 2.11 156 2.11   6 2.98   3 2.98
                            84 2.98 102 2.98  60 2.98  57 2.98   4 2.98  78 2.98  82 2.98  75 2.98
  31  0.000  0.500  0.167- 166 2.11 194 2.11 193 2.11 139 2.11 157 2.11 169 2.11   5 2.98   4 2.98
                            58 2.98  86 2.98  85 2.98  76 2.98   8 2.98 104 2.98   7 2.98 103 2.98
  32  0.000  0.500  0.500- 167 2.11 194 2.11 140 2.11 170 2.11 158 2.11 195 2.11   5 2.98  59 2.98
                            86 2.98   6 2.98  77 2.98   8 2.98 104 2.98  87 2.98  62 2.98  80 2.98
  33  0.000  0.500  0.833- 195 2.11 168 2.11 141 2.11 171 2.11 193 2.11 159 2.11   6 2.98  87 2.98
                             9 2.98 105 2.98  60 2.98   4 2.98  78 2.98  63 2.98  85 2.98  81 2.98
  34  0.000  0.833  0.167- 169 2.11 197 2.11 196 2.11 142 2.11 163 2.11 160 2.11   8 2.98   7 2.98
                            61 2.98  79 2.98  89 2.98  88 2.98   2 2.98 107 2.98  55 2.98 106 2.98
  35  0.000  0.833  0.500- 170 2.11 197 2.11 143 2.11 161 2.11 164 2.11 198 2.11   8 2.98  62 2.98
                             9 2.98  80 2.98  89 2.98   2 2.98 107 2.98  90 2.98  56 2.98   3 2.98
  36  0.000  0.833  0.833- 171 2.11 198 2.11 144 2.11 162 2.11 196 2.11 165 2.11   9 2.98  63 2.98
                            90 2.98   3 2.98 108 2.98   7 2.98  81 2.98  57 2.98  88 2.98   1 2.98
  37  0.333  0.167  0.167- 145 2.11 136 2.11 175 2.11 200 2.11 199 2.11 172 2.11  67 2.98  92 2.98
                            91 2.98  64 2.98  83 2.98  14 2.98  58 2.98  11 2.98  55 2.98  82 2.98
  38  0.333  0.167  0.500- 146 2.11 200 2.11 176 2.11 137 2.11 173 2.11 201 2.11  92 2.98  68 2.98
                            83 2.98  14 2.98  65 2.98  11 2.98  59 2.98  56 2.98  93 2.98  15 2.98
  39  0.333  0.167  0.833- 201 2.11 147 2.11 177 2.11 138 2.11 174 2.11 199 2.11  93 2.98  84 2.98
                            15 2.98  12 2.98  69 2.98  66 2.98  60 2.98  57 2.98  91 2.98  82 2.98
  40  0.333  0.500  0.167- 148 2.11 175 2.11 139 2.11 203 2.11 202 2.11 178 2.11  67 2.98  58 2.98
                            14 2.98  95 2.98  94 2.98  13 2.98  86 2.98  85 2.98  70 2.98  17 2.98
  41  0.333  0.500  0.500- 149 2.11 176 2.11 203 2.11 140 2.11 179 2.11 204 2.11  14 2.98  68 2.98
                            95 2.98  86 2.98  59 2.98  15 2.98  71 2.98  96 2.98  17 2.98  62 2.98
  42  0.333  0.500  0.833- 204 2.11 177 2.11 150 2.11 141 2.11 202 2.11 180 2.11  15 2.98  96 2.98
[...]
   -.255E-04 -.255E-04 -.255E-04   0.492E-04 0.492E-04 0.492E-04   0.937E-21 0.111E-20 -.662E-21   -.109E-04 -.109E-04 -.109E-04
   -.255E-04 -.255E-04 -.308E-03   0.492E-04 0.492E-04 -.140E-03   -.712E-21 0.291E-21 0.132E-21   -.109E-04 -.109E-04 0.118E-04
   -.255E-04 -.255E-04 0.432E-03   0.492E-04 0.492E-04 -.348E-03   0.106E-21 0.138E-20 0.375E-21   -.109E-04 -.109E-04 -.790E-06
   -.255E-04 -.308E-03 -.255E-04   0.492E-04 -.140E-03 0.492E-04   0.332E-21 0.692E-21 -.926E-21   -.109E-04 0.118E-04 -.109E-04
   -.255E-04 -.117E-03 -.117E-03   0.492E-04 -.140E-03 -.140E-03   0.175E-21 -.430E-21 -.212E-21   -.109E-04 0.102E-04 0.102E-04
   -.255E-04 -.117E-03 0.241E-03   0.492E-04 -.140E-03 -.348E-03   -.139E-20 0.108E-20 0.458E-21   -.109E-04 0.102E-04 0.794E-06
   -.255E-04 0.432E-03 -.254E-04   0.492E-04 -.348E-03 0.492E-04   -.499E-21 0.768E-21 0.371E-21   -.109E-04 -.790E-06 -.109E-04
   -.255E-04 0.241E-03 -.117E-03   0.492E-04 -.348E-03 -.140E-03   0.801E-21 -.371E-21 -.371E-21   -.109E-04 0.794E-06 0.102E-04
   -.255E-04 0.241E-03 0.241E-03   0.492E-04 -.348E-03 -.348E-03   -.360E-21 0.159E-20 -.925E-21   -.109E-04 0.794E-06 0.794E-06
   -.308E-03 -.255E-04 -.255E-04   -.140E-03 0.492E-04 0.492E-04   0.195E-20 -.688E-21 -.119E-20   0.118E-04 -.109E-04 -.109E-04
   -.117E-03 -.255E-04 -.117E-03   -.140E-03 0.492E-04 -.140E-03   -.147E-21 -.529E-21 0.000E+00   0.102E-04 -.109E-04 0.102E-04
   -.117E-03 -.255E-04 0.241E-03   -.140E-03 0.492E-04 -.348E-03   -.188E-20 0.450E-21 0.623E-21   0.102E-04 -.109E-04 0.794E-06
   -.117E-03 -.117E-03 -.255E-04   -.140E-03 -.140E-03 0.492E-04   -.137E-20 0.128E-20 -.185E-20   0.102E-04 0.102E-04 -.109E-04
   -.977E-04 -.977E-04 -.978E-04   -.140E-03 -.140E-03 -.140E-03   0.431E-21 -.182E-21 -.609E-21   0.110E-04 0.110E-04 0.110E-04
   -.977E-04 -.977E-04 0.222E-03   -.140E-03 -.140E-03 -.348E-03   0.183E-20 -.149E-20 -.178E-21   0.110E-04 0.110E-04 0.172E-07
   -.117E-03 0.241E-03 -.255E-04   -.140E-03 -.348E-03 0.492E-04   0.191E-21 0.106E-21 -.556E-21   0.102E-04 0.794E-06 -.109E-04
   -.977E-04 0.222E-03 -.977E-04   -.140E-03 -.348E-03 -.140E-03   -.218E-20 -.794E-21 0.241E-20   0.110E-04 0.172E-07 0.110E-04
   -.977E-04 0.222E-03 0.222E-03   -.140E-03 -.348E-03 -.348E-03   -.336E-21 0.556E-21 0.151E-21   0.110E-04 0.172E-07 0.172E-07
   0.432E-03 -.255E-04 -.254E-04   -.348E-03 0.492E-04 0.492E-04   -.295E-20 -.238E-21 -.270E-20   -.790E-06 -.109E-04 -.109E-04
   0.241E-03 -.255E-04 -.117E-03   -.348E-03 0.492E-04 -.140E-03   0.109E-21 -.106E-21 -.397E-21   0.794E-06 -.109E-04 0.102E-04
   0.241E-03 -.255E-04 0.241E-03   -.348E-03 0.492E-04 -.348E-03   -.543E-21 -.596E-22 -.669E-21   0.794E-06 -.109E-04 0.794E-06
   0.241E-03 -.117E-03 -.255E-04   -.348E-03 -.140E-03 0.492E-04   0.716E-21 0.120E-20 -.582E-21   0.794E-06 0.102E-04 -.109E-04
   0.222E-03 -.977E-04 -.977E-04   -.348E-03 -.140E-03 -.140E-03   -.142E-20 0.103E-20 0.708E-21   0.172E-07 0.110E-04 0.110E-04
   0.222E-03 -.977E-04 0.222E-03   -.348E-03 -.140E-03 -.348E-03   0.714E-21 0.915E-21 -.160E-23   0.172E-07 0.110E-04 0.172E-07
   0.241E-03 0.241E-03 -.255E-04   -.348E-03 -.348E-03 0.492E-04   -.727E-21 -.318E-21 0.265E-21   0.794E-06 0.794E-06 -.109E-04
   0.222E-03 0.222E-03 -.977E-04   -.348E-03 -.348E-03 -.140E-03   0.267E-21 0.143E-20 -.900E-21   0.172E-07 0.172E-07 0.110E-04
   0.222E-03 0.222E-03 0.222E-03   -.348E-03 -.348E-03 -.348E-03   -.286E-21 -.189E-21 -.617E-21   0.172E-07 0.172E-07 0.172E-07
   -.255E-04 0.171E-03 0.171E-03   0.492E-04 -.556E-04 -.556E-04   0.215E-21 0.847E-21 -.746E-21   -.109E-04 0.711E-06 0.711E-06
   -.255E-04 0.362E-03 -.455E-05   0.492E-04 -.556E-04 0.484E-04   -.542E-21 0.424E-21 0.609E-21   -.109E-04 -.873E-06 0.105E-04
   -.255E-04 0.171E-03 -.278E-03   0.492E-04 -.556E-04 0.446E-03   0.102E-20 0.106E-21 -.794E-22   -.109E-04 0.711E-06 -.113E-04
   -.255E-04 -.458E-05 0.362E-03   0.492E-04 0.484E-04 -.556E-04   0.214E-21 -.582E-21 -.893E-22   -.109E-04 0.105E-04 -.873E-06
   -.255E-04 -.458E-05 -.458E-05   0.492E-04 0.484E-04 0.484E-04   0.826E-21 -.450E-21 0.106E-21   -.109E-04 0.105E-04 0.105E-04
   -.255E-04 -.458E-05 -.468E-03   0.492E-04 0.484E-04 0.446E-03   -.118E-20 -.688E-21 0.291E-21   -.109E-04 0.105E-04 -.975E-05
   -.255E-04 -.278E-03 0.171E-03   0.492E-04 0.446E-03 -.556E-04   -.157E-20 -.914E-22 -.443E-21   -.109E-04 -.113E-04 0.711E-06
   -.255E-04 -.469E-03 -.461E-05   0.492E-04 0.446E-03 0.484E-04   -.272E-21 0.406E-21 -.476E-21   -.109E-04 -.975E-05 0.105E-04
   -.255E-04 -.278E-03 -.278E-03   0.492E-04 0.446E-03 0.446E-03   0.205E-21 -.792E-21 0.609E-21   -.109E-04 -.113E-04 -.113E-04
   -.977E-04 0.152E-03 0.152E-03   -.140E-03 -.556E-04 -.556E-04   -.218E-21 -.116E-20 0.285E-21   0.110E-04 -.661E-07 -.661E-07
   -.117E-03 0.171E-03 -.458E-05   -.140E-03 -.556E-04 0.484E-04   0.488E-21 0.371E-21 -.101E-20   0.102E-04 0.711E-06 0.105E-04
   -.977E-04 0.152E-03 -.258E-03   -.140E-03 -.556E-04 0.446E-03   -.189E-20 0.476E-21 0.259E-20   0.110E-04 -.661E-07 -.106E-04
   -.117E-03 -.458E-05 0.171E-03   -.140E-03 0.484E-04 -.556E-04   -.206E-20 -.529E-22 0.125E-20   0.102E-04 0.105E-04 0.711E-06
   -.308E-03 -.458E-05 -.461E-05   -.140E-03 0.484E-04 0.484E-04   0.123E-20 -.101E-20 -.715E-21   0.118E-04 0.105E-04 0.105E-04
   -.117E-03 -.458E-05 -.278E-03   -.140E-03 0.484E-04 0.446E-03   -.515E-22 -.529E-22 -.291E-21   0.102E-04 0.105E-04 -.113E-04
   -.977E-04 -.259E-03 0.152E-03   -.140E-03 0.446E-03 -.556E-04   0.150E-20 -.110E-21 0.821E-21   0.110E-04 -.106E-04 -.661E-07
   -.117E-03 -.278E-03 -.457E-05   -.140E-03 0.446E-03 0.484E-04   -.173E-20 0.216E-20 -.259E-20   0.102E-04 -.113E-04 0.105E-04
   -.977E-04 -.259E-03 -.259E-03   -.140E-03 0.446E-03 0.446E-03   0.286E-21 -.127E-20 0.265E-21   0.110E-04 -.106E-04 -.106E-04
   0.222E-03 0.152E-03 0.152E-03   -.348E-03 -.556E-04 -.556E-04   -.477E-21 0.147E-20 0.212E-21   0.172E-07 -.661E-07 -.661E-07
   0.241E-03 0.171E-03 -.459E-05   -.348E-03 -.556E-04 0.484E-04   -.393E-21 -.424E-21 0.265E-22   0.794E-06 0.711E-06 0.105E-04
   0.222E-03 0.152E-03 -.258E-03   -.348E-03 -.556E-04 0.446E-03   0.519E-21 -.556E-21 -.847E-21   0.172E-07 -.661E-07 -.106E-04
   0.241E-03 -.458E-05 0.171E-03   -.348E-03 0.484E-04 -.556E-04   -.284E-21 -.298E-22 -.139E-20   0.794E-06 0.105E-04 0.711E-06
   0.432E-03 -.458E-05 -.455E-05   -.348E-03 0.484E-04 0.484E-04   -.308E-20 -.715E-21 -.246E-20   -.790E-06 0.105E-04 0.105E-04
   0.241E-03 -.458E-05 -.278E-03   -.348E-03 0.484E-04 0.446E-03   0.409E-21 0.635E-21 0.111E-20   0.794E-06 0.105E-04 -.113E-04
   0.222E-03 -.259E-03 0.152E-03   -.348E-03 0.446E-03 -.556E-04   0.313E-21 0.404E-21 -.824E-21   0.172E-07 -.106E-04 -.661E-07
   0.241E-03 -.278E-03 -.458E-05   -.348E-03 0.446E-03 0.484E-04   0.514E-21 0.160E-20 -.220E-21   0.794E-06 -.113E-04 0.105E-04
   0.222E-03 -.259E-03 -.259E-03   -.348E-03 0.446E-03 0.446E-03   -.154E-20 -.818E-21 0.460E-21   0.172E-07 -.106E-04 -.106E-04
   0.171E-03 -.255E-04 0.171E-03   -.556E-04 0.492E-04 -.556E-04   0.379E-21 -.907E-21 -.298E-22   0.711E-06 -.109E-04 0.711E-06
   0.362E-03 -.255E-04 -.455E-05   -.556E-04 0.492E-04 0.484E-04   -.821E-21 0.122E-20 -.794E-21   -.873E-06 -.109E-04 0.105E-04
   0.171E-03 -.255E-04 -.278E-03   -.556E-04 0.492E-04 0.446E-03   0.835E-21 0.741E-21 -.217E-20   0.711E-06 -.109E-04 -.113E-04
   0.152E-03 -.977E-04 0.152E-03   -.556E-04 -.140E-03 -.556E-04   0.494E-21 0.387E-21 0.101E-20   -.661E-07 0.110E-04 -.661E-07
   0.171E-03 -.117E-03 -.458E-05   -.556E-04 -.140E-03 0.484E-04   0.739E-21 -.938E-21 -.161E-20   0.711E-06 0.102E-04 0.105E-04
   0.152E-03 -.977E-04 -.258E-03   -.556E-04 -.140E-03 0.446E-03   -.642E-21 0.960E-22 0.291E-21   -.661E-07 0.110E-04 -.106E-04
[...]
   -.340E-03 -.262E-04 -.340E-03   -.927E-04 0.479E-04 -.927E-04   -.768E-21 -.106E-20 -.582E-21   0.683E-05 0.635E-05 0.683E-05
   -.340E-03 -.262E-04 -.753E-04   -.927E-04 0.479E-04 -.247E-03   -.530E-20 0.308E-20 0.216E-20   0.683E-05 0.635E-05 -.155E-06
   -.340E-03 0.533E-04 -.342E-05   -.927E-04 0.305E-03 0.200E-04   -.450E-20 -.444E-20 -.707E-20   0.683E-05 -.622E-05 -.660E-05
   -.359E-03 0.340E-04 -.359E-03   -.927E-04 0.305E-03 -.927E-04   -.398E-20 0.347E-20 0.470E-20   0.634E-05 -.671E-05 0.634E-05
   -.359E-03 0.340E-04 -.560E-04   -.927E-04 0.305E-03 -.247E-03   -.842E-20 -.824E-21 0.430E-21   0.634E-05 -.671E-05 0.332E-06
   -.753E-04 0.110E-03 -.331E-05   -.247E-03 -.337E-04 0.200E-04   0.211E-20 -.110E-20 0.140E-20   -.155E-06 -.207E-06 -.660E-05
   -.560E-04 0.129E-03 -.359E-03   -.247E-03 -.337E-04 -.927E-04   0.258E-20 0.142E-20 0.293E-20   0.332E-06 0.281E-06 0.634E-05
   -.560E-04 0.129E-03 -.561E-04   -.247E-03 -.337E-04 -.247E-03   -.276E-20 -.445E-20 0.171E-20   0.332E-06 0.281E-06 0.332E-06
   -.154E-03 -.262E-04 -.342E-05   -.247E-03 0.479E-04 0.200E-04   0.342E-20 -.258E-20 -.285E-21   0.804E-06 0.635E-05 -.660E-05
   -.753E-04 -.262E-04 -.340E-03   -.247E-03 0.479E-04 -.927E-04   0.845E-21 0.175E-21 0.897E-21   -.155E-06 0.635E-05 0.683E-05
   -.753E-04 -.262E-04 -.753E-04   -.247E-03 0.479E-04 -.247E-03   0.148E-20 0.307E-20 0.202E-20   -.155E-06 0.635E-05 -.155E-06
   -.753E-04 0.533E-04 -.336E-05   -.247E-03 0.305E-03 0.200E-04   -.100E-20 0.342E-20 0.318E-20   -.155E-06 -.622E-05 -.660E-05
   -.560E-04 0.340E-04 -.359E-03   -.247E-03 0.305E-03 -.927E-04   -.180E-20 -.778E-21 -.360E-20   0.332E-06 -.671E-05 0.634E-05
   -.560E-04 0.340E-04 -.560E-04   -.247E-03 0.305E-03 -.247E-03   -.636E-21 -.227E-20 0.149E-20   0.332E-06 -.671E-05 0.332E-06
   -.530E-02 -.530E-02 -.530E-02   -.226E-11 0.109E-11 0.347E-12   -.870E-19 -.224E-19 0.348E-20   -.118E-07 -.118E-07 -.118E-07

 POSITION                                       TOTAL-FORCE (eV/Angst)
      0.00000      0.00000      0.00000        -0.000000      0.000000      0.000000
      0.00000      0.00000      4.21662         0.000000      0.000000     -0.000000
      0.00000      0.00000      8.43324        -0.000000      0.000000      0.000000
      0.00000      4.21662      0.00000        -0.000000     -0.000000     -0.000000
      0.00000      4.21662      4.21662         0.000000     -0.000000      0.000000
      0.00000      4.21662      8.43324         0.000000     -0.000000      0.000000
      0.00000      8.43324      0.00000         0.000000      0.000000     -0.000000
      0.00000      8.43324      4.21662        -0.000000     -0.000000      0.000000
      0.00000      8.43324      8.43324        -0.000000      0.000000      0.000000
      4.21662      0.00000      0.00000         0.000000      0.000000      0.000000
      4.21662      0.00000      4.21662        -0.000000      0.000000      0.000000
      4.21662      0.00000      8.43324         0.000000      0.000000     -0.000000
      4.21662      4.21662      0.00000        -0.000000     -0.000000      0.000000
      4.21662      4.21662      4.21662         0.000000     -0.000000     -0.000000
      4.21662      4.21662      8.43324        -0.000000     -0.000000     -0.000000
      4.21662      8.43324      0.00000        -0.000000      0.000000     -0.000000
      4.21662      8.43324      4.21662        -0.000000      0.000000     -0.000000
      4.21662      8.43324      8.43324        -0.000000      0.000000      0.000000
      8.43324      0.00000      0.00000         0.000000      0.000000     -0.000000
      8.43324      0.00000      4.21662        -0.000000      0.000000      0.000000
      8.43324      0.00000      8.43324        -0.000000      0.000000      0.000000
      8.43324      4.21662      0.00000        -0.000000     -0.000000      0.000000
      8.43324      4.21662      4.21662        -0.000000     -0.000000      0.000000
      8.43324      4.21662      8.43324         0.000000     -0.000000      0.000000
      8.43324      8.43324      0.00000        -0.000000      0.000000      0.000000
      8.43324      8.43324      4.21662        -0.000000      0.000000      0.000000
      8.43324      8.43324      8.43324        -0.000000      0.000000      0.000000
      0.00000      2.10831      2.10831        -0.000000     -0.000000     -0.000000
      0.00000      2.10831      6.32493         0.000000     -0.000000      0.000000
      0.00000      2.10831     10.54155        -0.000000     -0.000000      0.000000
      0.00000      6.32493      2.10831         0.000000      0.000000      0.000000
      0.00000      6.32493      6.32493        -0.000000      0.000000      0.000000
      0.00000      6.32493     10.54155         0.000000     -0.000000     -0.000000
      0.00000     10.54155      2.10831         0.000000     -0.000000      0.000000
      0.00000     10.54155      6.32493         0.000000     -0.000000      0.000000
      0.00000     10.54155     10.54155        -0.000000     -0.000000      0.000000
      4.21662      2.10831      2.10831         0.000000     -0.000000     -0.000000
      4.21662      2.10831      6.32493        -0.000000     -0.000000     -0.000000
      4.21662      2.10831     10.54155        -0.000000     -0.000000     -0.000000
      4.21662      6.32493      2.10831        -0.000000      0.000000     -0.000000
      4.21662      6.32493      6.32493         0.000000      0.000000      0.000000
      4.21662      6.32493     10.54155        -0.000000      0.000000      0.000000
      4.21662     10.54155      2.10831         0.000000     -0.000000      0.000000
      4.21662     10.54155      6.32493        -0.000000      0.000000     -0.000000
      4.21662     10.54155     10.54155         0.000000      0.000000     -0.000000
      8.43324      2.10831      2.10831         0.000000     -0.000000      0.000000
      8.43324      2.10831      6.32493        -0.000000     -0.000000     -0.000000
      8.43324      2.10831     10.54155         0.000000     -0.000000     -0.000000
      8.43324      6.32493      2.10831        -0.000000      0.000000     -0.000000
      8.43324      6.32493      6.32493         0.000000     -0.000000      0.000000
      8.43324      6.32493     10.54155        -0.000000      0.000000      0.000000
      8.43324     10.54155      2.10831        -0.000000     -0.000000      0.000000
      8.43324     10.54155      6.32493         0.000000     -0.000000      0.000000
      8.43324     10.54155     10.54155        -0.000000     -0.000000      0.000000
      2.10831      0.00000      2.10831        -0.000000      0.000000     -0.000000
      2.10831      0.00000      6.32493        -0.000000      0.000000      0.000000
      2.10831      0.00000     10.54155         0.000000      0.000000     -0.000000
      2.10831      4.21662      2.10831         0.000000     -0.000000     -0.000000
      2.10831      4.21662      6.32493         0.000000     -0.000000     -0.000000
      2.10831      4.21662     10.54155        -0.000000      0.000000      0.000000
[...]
      4.21662      6.32493      0.00000        -0.000000      0.000000      0.000000
      4.21662      6.32493      4.21662         0.000000      0.000000      0.000000
      4.21662      6.32493      8.43324         0.000000     -0.000000     -0.000000
      4.21662     10.54155      0.00000         0.000000     -0.000000      0.000000
      4.21662     10.54155      4.21662        -0.000000     -0.000000     -0.000000
      4.21662     10.54155      8.43324         0.000000      0.000000     -0.000000
      8.43324      2.10831      0.00000         0.000000      0.000000      0.000000
      8.43324      2.10831      4.21662        -0.000000      0.000000     -0.000000
      8.43324      2.10831      8.43324        -0.000000      0.000000      0.000000
      8.43324      6.32493      0.00000        -0.000000     -0.000000     -0.000000
      8.43324      6.32493      4.21662         0.000000      0.000000     -0.000000
      8.43324      6.32493      8.43324         0.000000     -0.000000      0.000000
      8.43324     10.54155      0.00000         0.000000     -0.000000      0.000000
      8.43324     10.54155      4.21662        -0.000000     -0.000000      0.000000
      8.43324     10.54155      8.43324         0.000000     -0.000000     -0.000000
    total drift:                               -0.005302     -0.005302     -0.005302

  FREE ENERGIE OF THE ION-ELECTRON SYSTEM (eV)
  free  energy   TOTEN  =     -1262.42247110 eV

  energy  without entropy=    -1261.82206123  energy(sigma->0) =    -1262.12226616

 stress matrix after NEB project (eV)
   -496.47314     -0.00000     -0.00000
     -0.00000   -496.47314      0.00000
      0.00000      0.00000   -496.47314
  FORCES: max atom, RMS     0.000000    0.000000
  FORCE total and by dimension    0.000000    0.000000
  Stress total and by dimension  859.916697  496.473136

 reached required accuracy - stopping structural energy minimisation