 vasp.6.2.1 16May21 (build Jun 16 2021 03:23:30) complex
 executed on             LinuxPGI date 2022.04.25  11:32:39

 INCAR:
   SYSTEM = NiAl
   ISTART = 0
   EDIFF = 5E-6
   NELMIN = 6
   ISIF = 1
   NSW = 40
   IBRION = 2
   POTIM = 0.2
   IVDW = 12
   LWAVE = .FALSE.
   LCHARG = .FALSE.
   LREAL = Auto
   NCORE = 1
   LPLANE = .TRUE.
   ENCUT = 360.00 eV
   ISMEAR = 0
   SIGMA = 0.05

 POTCAR:    PAW Al_GW 19Mar2012
 POTCAR:    PAW Al_GW 19Mar2012
   VRHFIN =Al: s2p1

   TITEL  = PAW Al_GW 19Mar2012
   POMASS =   26.982; ZVAL   =    3.000    mass and valenz
   ENMAX  =  240.300; ENMIN  =  180.225 eV

 Optimization of the real space projectors (new method)

 maximal supplied QI-value         = 18.90
 optimisation between [QCUT,QGAM] = [  9.64, 19.28] = [ 26.01,104.04] Ry
 Optimized for a Real-space Cutoff    1.46 Angstroem

   l    n(q)    QCUT    max X(q) W(low)/X(q) W(high)/X(q)  e(spline)
   0      8     9.638    11.519    0.10E-03    0.23E-03    0.86E-07
   0      8     9.638     5.834    0.72E-04    0.17E-03    0.68E-07
   1      8     9.638    10.132    0.33E-03    0.11E-03    0.32E-06
   1      8     9.638     3.004    0.25E-03    0.10E-03    0.24E-06
   2      7     9.638     3.169    0.30E-03    0.50E-03    0.35E-06
   2      7     9.638     1.607    0.15E-03    0.13E-03    0.12E-06
  PAW Al_GW 19Mar2012                   :

 POSCAR: New structure
  positions in cartesian coordinates
 exchange correlation table for  LEXCH =        8
   RHO(1)=    0.500       N(1)  =     2000
   RHO(2)=  100.500       N(2)  =     4000

 VTST: version 4.1, (05/19/21)

 CHAIN: initializing optimizer

 OPT: Using VASP Conjugate-Gradient optimizer
 CHAIN: Read ICHAIN             0

 POSCAR: New structure
  positions in cartesian coordinates

 ion  position               nearest neighbor table
   1  0.444  0.444  0.078-
   2  0.444  0.778  0.078-
   3  0.444  0.111  0.078-
   4  0.778  0.444  0.078-
   5  0.778  0.778  0.078-
   6  0.778  0.111  0.078-
   7  0.111  0.444  0.078-
   8  0.111  0.778  0.078-
   9  0.111  0.111  0.078-
  10  0.556  0.556  0.156-
  11  0.556  0.889  0.156-
  12  0.556  0.222  0.156-
  13  0.889  0.556  0.156-
  14  0.889  0.889  0.156-
  15  0.889  0.222  0.156-
  16  0.222  0.556  0.156-
  17  0.222  0.889  0.156-
  18  0.222  0.222  0.156-
  19  0.667  0.667  0.234-
  20  0.667  0.000  0.234-
  21  0.667  0.333  0.234-
  22  0.000  0.667  0.234-
  23  0.000  0.000  0.234-
  24  0.000  0.333  0.234-
  25  0.333  0.667  0.234-
  26  0.333  0.000  0.234-
  27  0.333  0.333  0.234-
  28  0.778  0.778  0.312-
  29  0.778  0.111  0.312-
  30  0.778  0.444  0.312-
  31  0.111  0.778  0.312-
  32  0.111  0.111  0.312-
  33  0.111  0.444  0.312-
  34  0.444  0.778  0.312-
  35  0.444  0.111  0.312-
  36  0.444  0.444  0.312-
  37  0.889  0.889  0.390-
  38  0.889  0.222  0.390-
  39  0.889  0.556  0.390-
  40  0.222  0.889  0.390-
  41  0.222  0.222  0.390-
  42  0.222  0.556  0.390-
  43  0.556  0.889  0.390-
  44  0.556  0.222  0.390-
  45  0.556  0.556  0.390-
  46  0.000  0.000  0.468-
  47  0.000  0.333  0.468-
  48  0.000  0.667  0.468-
  49  0.333  0.000  0.468-
  50  0.333  0.333  0.468-
  51  0.333  0.667  0.468-
  52  0.667  0.000  0.468-
  53  0.667  0.333  0.468-
  54  0.667  0.667  0.468-
  55  0.111  0.111  0.546-
  56  0.111  0.444  0.546-
  57  0.111  0.778  0.546-
  58  0.444  0.111  0.546-
  59  0.444  0.444  0.546-
  60  0.444  0.778  0.546-
[...]
 238  0.333  0.833  0.468-
 239  0.333  0.167  0.468-
 240  0.333  0.500  0.468-
 241  0.667  0.833  0.468-
 242  0.667  0.167  0.468-
 243  0.667  0.500  0.468-
 244  0.111  0.944  0.546-
 245  0.111  0.278  0.546-
 246  0.111  0.611  0.546-
 247  0.444  0.944  0.546-
 248  0.444  0.278  0.546-
 249  0.444  0.611  0.546-
 250  0.778  0.944  0.546-
 251  0.778  0.278  0.546-
 252  0.778  0.611  0.546-

  LATTYP: Found a hexagonal cell.
 ALAT       =    17.1805734625
 C/A-ratio  =     1.7461582447

  Lattice vectors:

 A1 = (   0.0000000000,   8.5902867312,  14.8788130701)
 A2 = (   0.0000000000, -17.1805734625,   0.0000000000)
 A3 = (  30.0000000000,   0.0000000000,   0.0000000000)

Analysis of symmetry for initial positions (statically):
 Subroutine PRICEL returns following result:

[...]

  36 primitive cells build up your supercell.

 Routine SETGRP: Setting up the symmetry group for a
 hexagonal supercell.

 Subroutine GETGRP returns: Found 12 space group operations
 (whereof  6 operations were pure point group operations)
 out of a pool of 24 trial point group operations.

The static configuration has the point symmetry C_3v.
 The point group associated with its full space group is D_3d.

Analysis of symmetry for dynamics (positions and initial velocities):
 Subroutine PRICEL returns following result:

  LATTYP: Found a hexagonal cell.
 ALAT       =     2.8634289104
 C/A-ratio  =    10.4769494681

  Lattice vectors:

 A1 = (   0.0000000000,   1.4317144552,   2.4798021784)
 A2 = (   0.0000000000,  -2.8634289104,   0.0000000000)
 A3 = (  30.0000000000,   0.0000000000,   0.0000000000)

  36 primitive cells build up your supercell.

 Routine SETGRP: Setting up the symmetry group for a
 hexagonal supercell.

 Subroutine GETGRP returns: Found 12 space group operations
 (whereof  6 operations were pure point group operations)
 out of a pool of 24 trial point group operations.

The dynamic configuration has the point symmetry C_3v.
 The point group associated with its full space group is D_3d.

 Subroutine INISYM returns: Found 12 space group operations
 (whereof  6 operations are pure point group operations),
 and found    36 'primitive' translations

                                     Primitive cell

  volume of cell :     213.0221

  direct lattice vectors                    reciprocal lattice vectors
     0.000000000  1.431714455  2.479802178    -0.000000000  0.000000000  0.403257973
     0.000000000 -2.863428910  0.000000000     0.000000000 -0.349231649  0.201628987
    30.000000000  0.000000000  0.000000000     0.033333333  0.000000000 -0.000000000

  length of vectors
     2.863428910  2.863428910 30.000000000     0.403257973  0.403257973  0.033333333

  position of ions in fractional coordinates (direct lattice)
     0.333333333  0.666666667  0.077932664
     0.666666667  0.333333333  0.155865328
     0.000000000  1.000000000  0.233797992
     0.333333333  0.666666667  0.311730655
     0.666666667  0.333333333  0.389663319
     0.000000000  1.000000000  0.467595983
     0.333333333  0.666666667  0.545528647

  ion indices of the primitive-cell ions
   primitive index   ion index
                 1           1
                 2          73
                 3          82
                 4          36
                 5         108
                 6         117
                 7          59

 KPOINTS: Automatic generation

Automatic generation of k-mesh.
 Grid dimensions read from file:
 generate k-points for:    2    2    1

 Generating k-lattice:

  Cartesian coordinates                     Fractional coordinates (reciprocal lattice)
     0.000000000 -0.029102637  0.016802416     0.500000000  0.000000000  0.000000000
     0.000000000  0.000000000 -0.033604831     0.000000000  0.500000000  0.000000000
     0.033333333  0.000000000  0.000000000     0.000000000  0.000000000  1.000000000

  Length of vectors
     0.033604831  0.033604831  0.033333333

  Shift w.r.t. Gamma in fractional coordinates (k-lattice)
     0.000000000  0.000000000  0.000000000

 Subroutine IBZKPT returns following result:

 Found      2 irreducible k-points:

 Following reciprocal coordinates:
            Coordinates               Weight
  0.000000  0.000000  0.000000      1.000000
  0.500000  0.000000  0.000000      3.000000

 Following cartesian coordinates:
            Coordinates               Weight
  0.000000 -0.000000 -0.000000      1.000000
  0.000000 -0.029103  0.016802      3.000000

 SYSTEM =  NiAl
 POSCAR =  New structure

 Startparameter for this run:
   NWRITE =      2    write-flag & timer
   PREC   = normal    normal or accurate (medium, high low for compatibility)
   ISTART =      0    job   : 0-new  1-cont  2-samecut
   ICHARG =      2    charge: 1-file 2-atom 10-const
   ISPIN  =      1    spin polarized calculation?
   LNONCOLLINEAR =      F non collinear calculations
   LSORBIT =      F    spin-orbit coupling
   INIWAV =      1    electr: 0-lowe 1-rand  2-diag
   LASPH  =      F    aspherical Exc in radial PAW
 Electronic Relaxation 1
   ENCUT  =  360.0 eV  26.46 Ry    5.14 a.u.  26.58 26.58 46.41*2*pi/ulx,y,z
   ENINI  =  360.0     initial cutoff
   ENAUG  =  482.1 eV  augmentation charge cutoff
   NELM   =     60;   NELMIN=  6; NELMDL= -5     # of ELM steps
   EDIFF  = 0.5E-05   stopping-criterion for ELM
   LREAL  =      T    real-space projection
   NLSPLINE    = F    spline interpolate recip. space projectors
   LCOMPAT=      F    compatible to vasp.4.4
   GGA_COMPAT  = T    GGA compatible to vasp.4.4-vasp.4.6
   LMAXPAW     = -100 max onsite density
   LMAXMIX     =    2 max onsite mixed and CHGCAR
   VOSKOWN=      0    Vosko Wilk Nusair interpolation
   ROPT   =   -0.00050
 Ionic relaxation
   EDIFFG = 0.5E-04   stopping-criterion for IOM
   NSW    =     40    number of steps for IOM
   NBLOCK =      1;   KBLOCK =     40    inner block; outer block
   IBRION =      2    ionic relax: 0-MD 1-quasi-New 2-CG
   NFREE  =      1    steps in history (QN), initial steepest desc. (CG)
   ISIF   =      1    stress and relaxation
   IWAVPR =     11    prediction:  0-non 1-charg 2-wave 3-comb
   ISYM   =      2    0-nonsym 1-usesym 2-fastsym
   LCORR  =      T    Harris-Foulkes like correction to forces

   POTIM  = 0.2000    time-step for ionic-motion
   TEIN   =    0.0    initial temperature
   TEBEG  =    0.0;   TEEND  =   0.0 temperature during run
   SMASS  =  -3.00    Nose mass-parameter (am)
   estimated Nose-frequenzy (Omega)   =  0.10E-29 period in steps = 0.31E+47 mass=  -0.675E-26a.u.
   SCALEE = 1.0000    scale energy and forces
   NPACO  =    256;   APACO  = 16.0  distance and # of slots for P.C.
   PSTRESS=    0.0 pullay stress

  Mass of Ions in am
   POMASS =  26.98
  Ionic Valenz
   ZVAL   =   3.00
  Atomic Wigner-Seitz radii
  virtual crystal weights
   VCA    =   1.00
   NELECT =     756.0000    total number of electrons
   NUPDOWN=      -1.0000    fix difference up-down

 DOS related values:
   EMIN   =  10.00;   EMAX   =-10.00  energy-range for DOS
   EFERMI =   0.00
   ISMEAR =     0;   SIGMA  =   0.05  broadening in eV -4-tet -1-fermi 0-gaus

 Electronic relaxation 2 (details)
   IALGO  =     38    algorithm
   LDIAG  =      T    sub-space diagonalisation (order eigenvalues)
   LSUBROT=      F    optimize rotation matrix (better conditioning)
   TURBO    =      0    0=normal 1=particle mesh
   IRESTART =      0    0=no restart 2=restart with 2 vectors
   NREBOOT  =      0    no. of reboots
   NMIN     =      0    reboot dimension
   EREF     =   0.00    reference energy to select bands
   IMIX   =      4    mixing-type and parameters
     AMIX     =   0.40;   BMIX     =  1.00
     AMIX_MAG =   1.60;   BMIX_MAG =  1.00
     AMIN     =   0.10
[...]
   0.319E+03 -.315E-05 0.101E-03   -.318E+03 -.307E-11 0.593E-11   -.942E+00 -.678E-17 -.325E-17   -.565E-05 0.378E-12 -.278E-10
   0.319E+03 -.168E-05 -.194E-04   -.318E+03 0.103E-12 -.387E-11   -.942E+00 -.179E-16 0.802E-17   -.565E-05 0.166E-11 0.167E-11
   0.319E+03 0.127E-04 0.734E-05   -.318E+03 0.345E-12 0.214E-12   -.942E+00 -.170E-16 0.976E-18   -.565E-05 -.132E-11 -.111E-11
   0.319E+03 -.690E-04 0.451E-04   -.318E+03 0.600E-12 0.407E-11   -.942E+00 -.170E-16 -.271E-17   -.565E-05 0.213E-10 -.140E-10
   0.319E+03 0.856E-04 -.530E-04   -.318E+03 0.357E-11 -.560E-11   -.942E+00 -.184E-16 0.314E-17   -.565E-05 -.242E-10 0.144E-10
   0.319E+03 0.452E-05 -.823E-04   -.318E+03 0.382E-11 -.151E-11   -.942E+00 -.141E-16 -.575E-17   -.565E-05 -.164E-11 0.253E-10
   0.319E+03 0.714E-04 0.412E-04   -.318E+03 0.407E-11 0.235E-11   -.942E+00 -.162E-16 -.564E-17   -.565E-05 -.221E-10 -.125E-10
   0.214E+03 0.203E-04 0.117E-04   -.214E+03 0.384E-11 0.220E-11   -.237E+00 0.263E-17 0.000E+00   -.259E-06 -.658E-11 -.396E-11
   0.214E+03 0.979E-06 -.246E-04   -.214E+03 0.307E-11 -.445E-11   -.237E+00 0.384E-17 -.813E-18   -.259E-06 0.975E-12 0.784E-11
   0.214E+03 0.533E-05 -.288E-05   -.214E+03 0.359E-11 -.188E-11   -.237E+00 0.312E-17 -.149E-17   -.259E-06 -.134E-11 0.961E-12
   0.214E+03 -.209E-04 0.132E-04   -.214E+03 -.231E-11 0.488E-11   -.237E+00 0.111E-17 0.103E-17   -.259E-06 0.735E-11 -.324E-11
   0.214E+03 -.172E-04 -.994E-05   -.214E+03 -.307E-11 -.177E-11   -.237E+00 0.102E-17 -.447E-18   -.259E-06 0.641E-11 0.366E-11
   0.214E+03 -.173E-05 0.203E-04   -.214E+03 -.255E-11 0.785E-12   -.237E+00 0.495E-18 0.257E-18   -.259E-06 0.269E-12 -.787E-11
   0.214E+03 0.169E-06 0.606E-05   -.214E+03 0.184E-12 0.403E-11   -.237E+00 0.386E-18 -.678E-19   -.259E-06 0.127E-13 -.168E-11
   0.214E+03 0.167E-04 -.117E-04   -.214E+03 -.594E-12 -.260E-11   -.237E+00 0.278E-18 0.141E-17   -.259E-06 -.687E-11 0.427E-11
   0.214E+03 -.366E-05 -.211E-05   -.214E+03 -.683E-13 -.491E-13   -.237E+00 0.440E-18 0.160E-17   -.259E-06 0.212E-11 0.138E-11
   0.106E+03 0.296E-05 0.171E-05   -.106E+03 -.283E-11 -.161E-11   0.139E+00 0.136E-17 0.144E-17   0.153E-04 0.289E-12 0.346E-12
   0.106E+03 0.581E-04 -.829E-06   -.106E+03 -.230E-11 0.751E-12   0.139E+00 0.949E-18 -.867E-18   0.153E-04 0.162E-10 0.325E-11
   0.106E+03 0.299E-04 -.538E-04   -.106E+03 -.179E-11 0.311E-11   0.139E+00 0.257E-17 0.976E-18   0.153E-04 0.466E-11 -.172E-10
   0.106E+03 0.283E-04 0.507E-04   -.106E+03 -.511E-12 -.236E-11   0.139E+00 0.705E-18 0.949E-18   0.153E-04 0.110E-10 0.125E-10
   0.106E+03 -.140E-06 -.808E-07   -.106E+03 -.282E-14 -.308E-14   0.139E+00 0.935E-18 0.163E-17   0.153E-04 -.429E-13 -.895E-14
   0.106E+03 -.269E-04 -.516E-04   -.106E+03 0.520E-12 0.234E-11   0.139E+00 0.625E-17 -.217E-17   0.153E-04 -.459E-11 -.174E-10
   0.106E+03 -.316E-04 0.527E-04   -.106E+03 0.179E-11 -.309E-11   0.139E+00 0.255E-17 0.320E-17   0.153E-04 -.125E-10 0.126E-10
   0.106E+03 -.581E-04 0.253E-05   -.106E+03 0.229E-11 -.722E-12   0.139E+00 0.278E-17 0.198E-17   0.153E-04 -.172E-10 0.469E-11
   0.106E+03 -.315E-05 -.182E-05   -.106E+03 0.282E-11 0.162E-11   0.139E+00 0.217E-18 -.271E-18   0.153E-04 -.126E-11 -.821E-12
   0.325E-03 0.100E-04 0.579E-05   -.212E-11 -.988E-14 0.389E-14   -.517E-19 0.466E-20 0.339E-20   0.255E-07 0.298E-11 0.171E-11
   0.329E-03 -.430E-04 0.288E-04   -.630E-12 0.506E-12 0.238E-11   0.712E-19 0.296E-20 0.339E-20   0.256E-07 -.454E-10 0.284E-10
   0.326E-03 -.895E-06 -.147E-04   -.212E-11 -.254E-12 -.410E-11   0.120E-18 0.635E-20 -.186E-19   0.255E-07 -.125E-11 -.482E-11
   0.329E-03 0.345E-05 -.517E-04   -.583E-12 0.231E-11 -.755E-12   0.132E-18 0.635E-20 0.254E-20   0.256E-07 0.182E-11 -.537E-10
   0.330E-03 0.450E-04 0.260E-04   0.915E-12 0.283E-11 0.163E-11   0.244E-19 0.165E-19 0.381E-20   0.256E-07 0.455E-10 0.264E-10
   0.353E-03 0.567E-04 -.353E-04   -.593E-12 0.207E-11 -.487E-11   0.644E-19 -.932E-20 -.339E-20   0.256E-07 0.506E-10 -.295E-10
   0.326E-03 -.132E-04 0.656E-05   -.213E-11 -.368E-11 0.185E-11   -.161E-18 0.678E-20 -.847E-21   0.255E-07 -.473E-11 0.129E-11
   0.353E-03 -.223E-05 0.668E-04   -.608E-12 -.317E-11 0.424E-11   -.504E-19 0.720E-20 0.169E-20   0.256E-07 -.286E-12 0.584E-10
   0.354E-03 -.554E-04 -.320E-04   -.213E-11 -.393E-11 -.225E-11   0.139E-18 0.402E-20 0.424E-21   0.256E-07 -.497E-10 -.286E-10
   -.106E+03 -.339E-04 -.196E-04   0.106E+03 -.282E-11 -.161E-11   -.139E+00 -.251E-17 -.732E-18   -.152E-04 -.575E-10 -.335E-10
   -.106E+03 -.262E-05 0.390E-04   0.106E+03 -.229E-11 0.730E-12   -.139E+00 -.213E-17 0.190E-18   -.152E-04 0.459E-12 0.673E-10
   -.106E+03 -.435E-04 0.269E-04   0.106E+03 -.206E-11 0.482E-11   -.139E+00 -.286E-17 0.103E-17   -.152E-04 -.769E-10 0.459E-10
   -.106E+03 0.325E-04 -.218E-04   0.106E+03 -.530E-12 -.234E-11   -.139E+00 -.659E-17 0.260E-17   -.152E-04 0.583E-10 -.335E-10
   -.106E+03 -.797E-05 -.460E-05   0.106E+03 -.722E-15 0.838E-14   -.139E+00 -.412E-17 0.352E-18   -.152E-04 -.218E-10 -.123E-10
   -.106E+03 0.605E-06 0.119E-04   0.106E+03 0.251E-12 0.409E-11   -.139E+00 0.136E-17 -.157E-17   -.152E-04 0.677E-12 0.263E-10
   -.106E+03 0.159E-05 -.511E-04   0.106E+03 0.313E-11 -.418E-11   -.139E+00 -.218E-17 0.108E-18   -.152E-04 0.125E-11 -.898E-10
   -.106E+03 0.106E-04 -.541E-05   0.106E+03 0.367E-11 -.182E-11   -.139E+00 -.129E-17 0.127E-17   -.152E-04 0.230E-10 -.123E-10
   -.106E+03 0.425E-04 0.245E-04   0.106E+03 0.391E-11 0.226E-11   -.139E+00 -.542E-19 0.160E-17   -.152E-04 0.778E-10 0.451E-10
   -.214E+03 0.258E-07 0.149E-07   0.214E+03 0.597E-13 0.513E-13   0.237E+00 -.705E-17 -.474E-18   0.274E-06 -.852E-12 -.281E-12
   -.214E+03 -.231E-04 -.441E-04   0.214E+03 0.586E-12 0.260E-11   0.237E+00 -.602E-17 0.130E-17   0.274E-06 -.367E-10 -.737E-10
   -.214E+03 0.240E-04 0.437E-04   0.214E+03 -.436E-12 -.235E-11   0.237E+00 -.471E-17 0.257E-18   0.274E-06 0.444E-10 0.675E-10
   -.214E+03 -.498E-04 0.211E-05   0.214E+03 0.254E-11 -.776E-12   0.237E+00 0.182E-17 -.596E-18   0.274E-06 -.827E-10 0.544E-11
   -.214E+03 -.277E-05 -.160E-05   0.214E+03 0.306E-11 0.178E-11   0.237E+00 0.300E-17 -.718E-18   0.274E-06 -.604E-12 0.117E-12
   -.214E+03 -.269E-04 0.456E-04   0.214E+03 0.205E-11 -.319E-11   0.237E+00 0.557E-17 0.217E-18   0.274E-06 -.463E-10 0.673E-10
   -.214E+03 0.499E-04 -.109E-05   0.214E+03 -.227E-11 0.841E-12   0.237E+00 -.543E-17 0.908E-18   0.274E-06 0.813E-10 0.470E-11
   -.214E+03 0.261E-04 -.461E-04   0.214E+03 -.175E-11 0.340E-11   0.237E+00 -.324E-17 0.125E-17   0.274E-06 0.355E-10 -.736E-10
   -.214E+03 0.285E-05 0.165E-05   0.214E+03 -.275E-11 -.156E-11   0.237E+00 -.502E-17 0.111E-17   0.274E-06 -.541E-12 -.930E-12
   -.319E+03 0.542E-04 0.313E-04   0.318E+03 0.265E-11 0.152E-11   0.942E+00 0.156E-16 0.103E-16   0.564E-05 0.505E-10 0.296E-10
   -.319E+03 0.641E-04 -.397E-04   0.318E+03 0.192E-11 -.519E-11   0.942E+00 0.138E-16 0.146E-16   0.564E-05 0.653E-10 -.369E-10
   -.319E+03 0.392E-05 -.628E-04   0.318E+03 0.217E-11 -.110E-11   0.942E+00 0.211E-16 0.629E-17   0.564E-05 -.174E-11 -.586E-10
   -.319E+03 -.234E-05 0.753E-04   0.318E+03 -.352E-11 0.426E-11   0.942E+00 0.162E-16 0.112E-16   0.564E-05 0.666E-12 0.756E-10
   -.319E+03 -.626E-04 -.361E-04   0.318E+03 -.426E-11 -.246E-11   0.942E+00 0.195E-16 0.846E-17   0.564E-05 -.664E-10 -.383E-10
   -.319E+03 -.126E-04 0.617E-05   0.318E+03 -.401E-11 0.162E-11   0.942E+00 0.117E-16 0.271E-17   0.564E-05 -.160E-10 0.105E-10
[...]
   -.214E+03 -.269E-04 0.456E-04   0.214E+03 0.206E-11 -.320E-11   0.237E+00 0.236E-17 -.962E-18   0.274E-06 -.463E-10 0.672E-10
   -.214E+03 -.498E-04 0.211E-05   0.214E+03 0.255E-11 -.786E-12   0.237E+00 0.276E-17 -.366E-18   0.274E-06 -.826E-10 0.557E-11
   -.214E+03 0.261E-04 -.461E-04   0.214E+03 -.173E-11 0.340E-11   0.237E+00 -.300E-17 0.154E-17   0.274E-06 0.357E-10 -.736E-10
   -.214E+03 0.285E-05 0.165E-05   0.214E+03 -.275E-11 -.156E-11   0.237E+00 -.445E-17 0.104E-17   0.274E-06 -.548E-12 -.110E-11
   -.214E+03 0.499E-04 -.109E-05   0.214E+03 -.226E-11 0.835E-12   0.237E+00 -.363E-17 0.125E-17   0.274E-06 0.811E-10 0.481E-11
   -.319E+03 0.641E-04 -.397E-04   0.318E+03 0.193E-11 -.520E-11   0.942E+00 0.137E-16 0.144E-16   0.564E-05 0.653E-10 -.372E-10
   -.319E+03 0.392E-05 -.628E-04   0.318E+03 0.217E-11 -.111E-11   0.942E+00 0.132E-16 0.846E-17   0.564E-05 -.167E-11 -.586E-10
   -.319E+03 0.542E-04 0.313E-04   0.318E+03 0.265E-11 0.151E-11   0.942E+00 0.191E-16 0.813E-17   0.564E-05 0.505E-10 0.298E-10
   -.319E+03 -.626E-04 -.361E-04   0.318E+03 -.426E-11 -.246E-11   0.942E+00 0.113E-16 0.162E-16   0.564E-05 -.664E-10 -.384E-10
   -.319E+03 -.126E-04 0.617E-05   0.318E+03 -.401E-11 0.162E-11   0.942E+00 0.224E-16 0.575E-17   0.564E-05 -.158E-10 0.105E-10
   -.319E+03 -.234E-05 0.753E-04   0.318E+03 -.352E-11 0.425E-11   0.942E+00 0.176E-16 0.390E-17   0.564E-05 0.514E-12 0.757E-10
   -.319E+03 -.935E-06 -.140E-04   0.318E+03 -.597E-12 -.430E-11   0.942E+00 0.184E-17 -.358E-17   0.564E-05 0.175E-11 -.193E-10
   -.319E+03 0.867E-05 0.501E-05   0.318E+03 -.342E-12 -.214E-12   0.942E+00 0.488E-17 -.173E-17   0.564E-05 0.173E-10 0.943E-11
   -.319E+03 -.524E-04 0.348E-04   0.318E+03 0.155E-12 0.240E-11   0.942E+00 0.688E-17 -.596E-17   0.564E-05 -.510E-10 0.281E-10
   -.434E-01 -.294E-05 -.170E-05   -.568E-12 0.120E-12 0.181E-13   -.722E-14 -.173E-16 0.559E-16   0.265E-05 -.125E-10 -.721E-11

 POSITION                                       TOTAL-FORCE (eV/Angst)
      2.45779    -11.45372     -6.61281         0.001141     -0.000000      0.000000
      2.45779    -14.31714    -11.57241         0.001141     -0.000000      0.000000
      2.45779     -8.59029     -1.65320         0.001141     -0.000000      0.000000
      2.45779    -17.18057     -6.61281         0.001141     -0.000000      0.000000
      2.45779    -20.04400    -11.57241         0.001141     -0.000000     -0.000000
      2.45779    -14.31714     -1.65320         0.001141     -0.000000      0.000000
      2.45779     -5.72686     -6.61281         0.001141     -0.000000      0.000000
      2.45779     -8.59029    -11.57241         0.001141     -0.000000      0.000000
      2.45779     -2.86343     -1.65320         0.001141     -0.000000     -0.000000
      4.78468    -14.31714     -8.26601        -0.000078      0.000000      0.000000
      4.78468    -17.18057    -13.22561        -0.000078     -0.000000      0.000000
      4.78468    -11.45372     -3.30640        -0.000078      0.000000      0.000000
      4.78468    -20.04400     -8.26601        -0.000078      0.000000      0.000000
      4.78468    -22.90743    -13.22561        -0.000078      0.000000      0.000000
      4.78468    -17.18057     -3.30640        -0.000078      0.000000      0.000000
      4.78468     -8.59029     -8.26601        -0.000078      0.000000      0.000000
      4.78468    -11.45372    -13.22561        -0.000078     -0.000000      0.000000
      4.78468     -5.72686     -3.30640        -0.000078      0.000000     -0.000000
      7.05493    -17.18057     -9.91921         0.000657     -0.000000      0.000000
      7.05493    -11.45372     -0.00000         0.000657      0.000000     -0.000000
      7.05493    -14.31714     -4.95960         0.000657      0.000000     -0.000000
      7.05493     -5.72686     -9.91921         0.000657      0.000000     -0.000000
      7.05493     -0.00000     -0.00000         0.000657     -0.000000      0.000000
      7.05493     -2.86343     -4.95960         0.000657      0.000000     -0.000000
      7.05493    -11.45372     -9.91921         0.000657      0.000000      0.000000
      7.05493     -5.72686     -0.00000         0.000657     -0.000000      0.000000
      7.05493     -8.59029     -4.95960         0.000657      0.000000     -0.000000
      9.35192    -20.04400    -11.57241         0.000000     -0.000000     -0.000000
      9.35192    -14.31714     -1.65320         0.000000      0.000000      0.000000
      9.35192    -17.18057     -6.61281         0.000000     -0.000000      0.000000
      9.35192     -8.59029    -11.57241         0.000000     -0.000000     -0.000000
      9.35192     -2.86343     -1.65320         0.000000     -0.000000      0.000000
      9.35192     -5.72686     -6.61281         0.000000      0.000000     -0.000000
      9.35192    -14.31714    -11.57241         0.000000      0.000000     -0.000000
      9.35192     -8.59029     -1.65320         0.000000     -0.000000      0.000000
      9.35192    -11.45372     -6.61281         0.000000     -0.000000      0.000000
     11.64891    -22.90743    -13.22561        -0.000657     -0.000000     -0.000000
     11.64891    -17.18057     -3.30640        -0.000657      0.000000     -0.000000
     11.64891    -20.04400     -8.26601        -0.000657      0.000000      0.000000
     11.64891    -11.45372    -13.22561        -0.000657     -0.000000     -0.000000
     11.64891     -5.72686     -3.30640        -0.000657      0.000000      0.000000
     11.64891     -8.59029     -8.26601        -0.000657      0.000000      0.000000
     11.64891    -17.18057    -13.22561        -0.000657     -0.000000     -0.000000
     11.64891    -11.45372     -3.30640        -0.000657      0.000000     -0.000000
     11.64891    -14.31714     -8.26601        -0.000657      0.000000     -0.000000
     13.91915     -0.00000      0.00000         0.000078     -0.000000     -0.000000
     13.91915     -2.86343     -4.95960         0.000078      0.000000     -0.000000
     13.91915     -5.72686     -9.91921         0.000078     -0.000000     -0.000000
     13.91915     -5.72686      0.00000         0.000078      0.000000     -0.000000
     13.91915     -8.59029     -4.95960         0.000078      0.000000     -0.000000
     13.91915    -11.45372     -9.91921         0.000078      0.000000     -0.000000
     13.91915    -11.45372     -0.00000         0.000078     -0.000000     -0.000000
     13.91915    -14.31714     -4.95960         0.000078      0.000000     -0.000000
     13.91915    -17.18057     -9.91921         0.000078     -0.000000     -0.000000
     16.24605     -2.86343     -1.65320        -0.001141      0.000000     -0.000000
     16.24605     -5.72686     -6.61281        -0.001141      0.000000     -0.000000
     16.24605     -8.59029    -11.57241        -0.001141      0.000000     -0.000000
     16.24605     -8.59029     -1.65320        -0.001141     -0.000000     -0.000000
     16.24605    -11.45372     -6.61281        -0.001141      0.000000     -0.000000
     16.24605    -14.31714    -11.57241        -0.001141      0.000000     -0.000000
[...]
     13.91915    -12.88543    -12.39901         0.000078      0.000000     -0.000000
     13.91915     -7.15857     -2.47980         0.000078      0.000000     -0.000000
     13.91915    -10.02200     -7.43941         0.000078      0.000000     -0.000000
     13.91915    -18.61229    -12.39901         0.000078     -0.000000     -0.000000
     13.91915    -12.88543     -2.47980         0.000078     -0.000000      0.000000
     13.91915    -15.74886     -7.43941         0.000078     -0.000000     -0.000000
     16.24605    -10.02200    -14.05221        -0.001141      0.000000      0.000000
     16.24605     -4.29514     -4.13300        -0.001141      0.000000      0.000000
     16.24605     -7.15857     -9.09261        -0.001141      0.000000     -0.000000
     16.24605    -15.74886    -14.05221        -0.001141      0.000000     -0.000000
     16.24605    -10.02200     -4.13300        -0.001141      0.000000     -0.000000
     16.24605    -12.88543     -9.09261        -0.001141     -0.000000     -0.000000
     16.24605    -21.47572    -14.05221        -0.001141      0.000000      0.000000
     16.24605    -15.74886     -4.13300        -0.001141      0.000000      0.000000
     16.24605    -18.61229     -9.09261        -0.001141     -0.000000     -0.000000
    total drift:                               -0.043363     -0.000003     -0.000002

  FREE ENERGIE OF THE ION-ELECTRON SYSTEM (eV)
  free  energy   TOTEN  =      -992.63268863 eV

  energy  without entropy=     -992.51315033  energy(sigma->0) =     -992.57291948

 d Force = 0.1278213E-05[ 0.200E-06, 0.236E-05]  d Energy = 0.1805785E-05-0.528E-06
 d Force =-0.1061307E+01[-0.106E+01,-0.106E+01]  d Ewald  =-0.1061307E+01 0.175E-06

 stress matrix after NEB project (eV)
     16.08756     -0.00000      0.00000
      0.00000   -130.90131      0.00000
     -0.00000     -0.00000   -130.90131
  FORCES: max atom, RMS     0.001141    0.000705
  FORCE total and by dimension    0.011190    0.001141
  Stress total and by dimension  185.820113  130.901308

 reached required accuracy - stopping structural energy minimisation