 vasp.6.2.1 16May21 (build Jun 16 2021 03:23:30) complex
 executed on             LinuxPGI date 2022.04.23  21:27:14

 INCAR:
   SYSTEM = NiAl
   ISTART = 0
   EDIFF = 1E-7
   NELMIN = 6
   ISIF = 1
   NSW = 40
   IBRION = 2
   POTIM = 0.2
   IVDW = 12
   LWAVE = .FALSE.
   LCHARG = .FALSE.
   LREAL = Auto
   NCORE = 1
   LPLANE = .TRUE.
   ENCUT = 360.00 eV
   ISMEAR = 0
   SIGMA = 0.05

 POTCAR:    PAW Al_GW 19Mar2012
 POTCAR:    PAW O_GW 19Mar2012
 POTCAR:    PAW Al_GW 19Mar2012
   VRHFIN =Al: s2p1

   TITEL  = PAW Al_GW 19Mar2012
   POMASS =   26.982; ZVAL   =    3.000    mass and valenz
   ENMAX  =  240.300; ENMIN  =  180.225 eV

 POTCAR:    PAW O_GW 19Mar2012
   VRHFIN =O: s2p4

   TITEL  = PAW O_GW 19Mar2012
   POMASS =   16.000; ZVAL   =    6.000    mass and valenz
   ENMAX  =  434.431; ENMIN  =  325.824 eV

 Optimization of the real space projectors (new method)

 maximal supplied QI-value         = 18.90
 optimisation between [QCUT,QGAM] = [  9.64, 19.28] = [ 26.01,104.04] Ry
 Optimized for a Real-space Cutoff    1.46 Angstroem

   l    n(q)    QCUT    max X(q) W(low)/X(q) W(high)/X(q)  e(spline)
   0      8     9.638    11.519    0.10E-03    0.23E-03    0.86E-07
   0      8     9.638     5.834    0.72E-04    0.17E-03    0.68E-07
   1      8     9.638    10.132    0.33E-03    0.11E-03    0.32E-06
   1      8     9.638     3.004    0.25E-03    0.10E-03    0.24E-06
   2      7     9.638     3.169    0.30E-03    0.50E-03    0.35E-06
   2      7     9.638     1.607    0.15E-03    0.13E-03    0.12E-06
 Optimization of the real space projectors (new method)

 maximal supplied QI-value         = 23.62
 optimisation between [QCUT,QGAM] = [  9.68, 19.37] = [ 26.27,105.06] Ry
 Optimized for a Real-space Cutoff    2.14 Angstroem

   l    n(q)    QCUT    max X(q) W(low)/X(q) W(high)/X(q)  e(spline)
   0     13     9.685   116.464    0.15E-03    0.15E-03    0.47E-05
   0     13     9.685   116.329    0.15E-03    0.15E-03    0.46E-05
   0     13     9.685     0.942    0.20E-04    0.50E-04    0.17E-05
   1     12     9.685    29.046    0.36E-03    0.11E-02    0.25E-04
   1     12     9.685    24.247    0.38E-03    0.11E-02    0.26E-04
   1     12     9.685     2.381    0.13E-03    0.38E-03    0.78E-05
   2     12     9.685     2.237    0.60E-05    0.28E-04    0.14E-05
   2     12     9.685     1.850    0.17E-04    0.70E-04    0.25E-05
  PAW Al_GW 19Mar2012                   :
  PAW O_GW 19Mar2012                    :

 POSCAR: New structure
  positions in cartesian coordinates
 exchange correlation table for  LEXCH =        8
   RHO(1)=    0.500       N(1)  =     2000
   RHO(2)=  100.500       N(2)  =     4000

 VTST: version 4.1, (05/19/21)

 CHAIN: initializing optimizer

 OPT: Using VASP Conjugate-Gradient optimizer
 CHAIN: Read ICHAIN             0

 POSCAR: New structure
  positions in cartesian coordinates

 ion  position               nearest neighbor table
   1  0.000  0.000  0.000- 257 2.02
   2  0.000  0.125  0.125-
   3  0.125  0.000  0.125- 257 2.02
   4  0.125  0.125  0.000- 257 2.02
   5  0.000  0.000  0.250-
   6  0.000  0.125  0.375-
   7  0.125  0.000  0.375-
   8  0.125  0.125  0.250-
   9  0.000  0.000  0.500-
  10  0.000  0.125  0.625-
  11  0.125  0.000  0.625-
  12  0.125  0.125  0.500-
  13  0.000  0.000  0.750-
  14  0.000  0.125  0.875-
  15  0.125  0.000  0.875- 257 2.02
  16  0.125  0.125  0.750-
  17  0.000  0.250  0.000-
  18  0.000  0.375  0.125-
  19  0.125  0.250  0.125-
  20  0.125  0.375  0.000-
  21  0.000  0.250  0.250-
  22  0.000  0.375  0.375-
  23  0.125  0.250  0.375-
  24  0.125  0.375  0.250-
  25  0.000  0.250  0.500-
  26  0.000  0.375  0.625-
  27  0.125  0.250  0.625-
  28  0.125  0.375  0.500-
  29  0.000  0.250  0.750-
  30  0.000  0.375  0.875-
  31  0.125  0.250  0.875-
  32  0.125  0.375  0.750-
  33  0.000  0.500  0.000-
  34  0.000  0.625  0.125-
  35  0.125  0.500  0.125-
  36  0.125  0.625  0.000-
  37  0.000  0.500  0.250-
  38  0.000  0.625  0.375-
  39  0.125  0.500  0.375-
  40  0.125  0.625  0.250-
  41  0.000  0.500  0.500-
  42  0.000  0.625  0.625-
  43  0.125  0.500  0.625-
  44  0.125  0.625  0.500-
  45  0.000  0.500  0.750-
  46  0.000  0.625  0.875-
  47  0.125  0.500  0.875-
  48  0.125  0.625  0.750-
  49  0.000  0.750  0.000-
  50  0.000  0.875  0.125-
  51  0.125  0.750  0.125-
  52  0.125  0.875  0.000- 257 2.02
  53  0.000  0.750  0.250-
  54  0.000  0.875  0.375-
  55  0.125  0.750  0.375-
  56  0.125  0.875  0.250-
  57  0.000  0.750  0.500-
  58  0.000  0.875  0.625-
  59  0.125  0.750  0.625-
  60  0.125  0.875  0.500-
  61  0.000  0.750  0.750-
  62  0.000  0.875  0.875-
  63  0.125  0.750  0.875-
  64  0.125  0.875  0.750-
  65  0.250  0.000  0.000- 257 2.02
  66  0.250  0.125  0.125-
  67  0.375  0.000  0.125-
  68  0.375  0.125  0.000-
  69  0.250  0.000  0.250-
  70  0.250  0.125  0.375-
  71  0.375  0.000  0.375-
  72  0.375  0.125  0.250-
  73  0.250  0.000  0.500-
  74  0.250  0.125  0.625-
  75  0.375  0.000  0.625-
  76  0.375  0.125  0.500-
  77  0.250  0.000  0.750-
  78  0.250  0.125  0.875-
  79  0.375  0.000  0.875-
  80  0.375  0.125  0.750-
  81  0.250  0.250  0.000-
  82  0.250  0.375  0.125-
  83  0.375  0.250  0.125-
  84  0.375  0.375  0.000-
  85  0.250  0.250  0.250-
  86  0.250  0.375  0.375-
  87  0.375  0.250  0.375-
  88  0.375  0.375  0.250-
  89  0.250  0.250  0.500-
  90  0.250  0.375  0.625-
  91  0.375  0.250  0.625-
  92  0.375  0.375  0.500-
  93  0.250  0.250  0.750-
  94  0.250  0.375  0.875-
  95  0.375  0.250  0.875-
  96  0.375  0.375  0.750-
  97  0.250  0.500  0.000-
  98  0.250  0.625  0.125-
  99  0.375  0.500  0.125-
 100  0.375  0.625  0.000-
 101  0.250  0.500  0.250-
 102  0.250  0.625  0.375-
 103  0.375  0.500  0.375-
 104  0.375  0.625  0.250-
 105  0.250  0.500  0.500-
 106  0.250  0.625  0.625-
 107  0.375  0.500  0.625-
 108  0.375  0.625  0.500-
 109  0.250  0.500  0.750-
 110  0.250  0.625  0.875-
 111  0.375  0.500  0.875-
 112  0.375  0.625  0.750-
 113  0.250  0.750  0.000-
 114  0.250  0.875  0.125-
 115  0.375  0.750  0.125-
 116  0.375  0.875  0.000-
 117  0.250  0.750  0.250-
 118  0.250  0.875  0.375-
 119  0.375  0.750  0.375-
 120  0.375  0.875  0.250-
 121  0.250  0.750  0.500-
 122  0.250  0.875  0.625-
 123  0.375  0.750  0.625-
 124  0.375  0.875  0.500-
 125  0.250  0.750  0.750-
[...]
 242  0.750  0.875  0.125-
 243  0.875  0.750  0.125-
 244  0.875  0.875  0.000-
 245  0.750  0.750  0.250-
 246  0.750  0.875  0.375-
 247  0.875  0.750  0.375-
 248  0.875  0.875  0.250-
 249  0.750  0.750  0.500-
 250  0.750  0.875  0.625-
 251  0.875  0.750  0.625-
 252  0.875  0.875  0.500-
 253  0.750  0.750  0.750-
 254  0.750  0.875  0.875-
 255  0.875  0.750  0.875-
 256  0.875  0.875  0.750-
 257  0.125  0.000  0.000-   1 2.02   3 2.02   4 2.02  15 2.02  52 2.02  65 2.02

  LATTYP: Found a simple cubic cell.
 ALAT       =    16.1980000000

  Lattice vectors:

 A1 = (  16.1980000000,   0.0000000000,   0.0000000000)
 A2 = (   0.0000000000,  16.1980000000,   0.0000000000)
 A3 = (   0.0000000000,   0.0000000000,  16.1980000000)

Analysis of symmetry for initial positions (statically):
 Subroutine PRICEL returns:
 Original cell was already a primitive cell.

 Routine SETGRP: Setting up the symmetry group for a
 simple cubic supercell.

 Subroutine GETGRP returns: Found 48 space group operations
 (whereof  8 operations were pure point group operations)
 out of a pool of 48 trial point group operations.

The static configuration has the point symmetry C_4v.
 The point group associated with its full space group is O_h .

Analysis of symmetry for dynamics (positions and initial velocities):
 Subroutine PRICEL returns:
 Original cell was already a primitive cell.

 Routine SETGRP: Setting up the symmetry group for a
 simple cubic supercell.

 Subroutine GETGRP returns: Found 48 space group operations
 (whereof  8 operations were pure point group operations)
 out of a pool of 48 trial point group operations.

The dynamic configuration has the point symmetry C_4v.
 The point group associated with its full space group is O_h .

 Subroutine INISYM returns: Found 48 space group operations
 (whereof  8 operations are pure point group operations),
 and found     1 'primitive' translations

                                     Primitive cell

  volume of cell :    4249.9536

  direct lattice vectors                    reciprocal lattice vectors
    16.198000000  0.000000000  0.000000000     0.061736017  0.000000000  0.000000000
     0.000000000 16.198000000  0.000000000     0.000000000  0.061736017  0.000000000
     0.000000000  0.000000000 16.198000000     0.000000000  0.000000000  0.061736017

  length of vectors
    16.198000000 16.198000000 16.198000000     0.061736017  0.061736017  0.061736017

  position of ions in fractional coordinates (direct lattice)
     0.000000000  0.000000000  0.000000000
     0.000000000  0.125000000  0.125000000
     0.125000000  0.000000000  0.125000000
     0.125000000  0.125000000  0.000000000
     0.000000000  0.000000000  0.250000000
     0.000000000  0.125000000  0.375000000
     0.125000000  0.000000000  0.375000000
     0.125000000  0.125000000  0.250000000
     0.000000000  0.000000000  0.500000000
     0.000000000  0.125000000  0.625000000
     0.125000000  0.000000000  0.625000000
     0.125000000  0.125000000  0.500000000
     0.000000000  0.000000000  0.750000000
     0.000000000  0.125000000  0.875000000
     0.125000000  0.000000000  0.875000000
     0.125000000  0.125000000  0.750000000
     0.000000000  0.250000000  0.000000000
     0.000000000  0.375000000  0.125000000
     0.125000000  0.250000000  0.125000000
     0.125000000  0.375000000  0.000000000
     0.000000000  0.250000000  0.250000000
     0.000000000  0.375000000  0.375000000
     0.125000000  0.250000000  0.375000000
     0.125000000  0.375000000  0.250000000
     0.000000000  0.250000000  0.500000000
     0.000000000  0.375000000  0.625000000
     0.125000000  0.250000000  0.625000000
     0.125000000  0.375000000  0.500000000
     0.000000000  0.250000000  0.750000000
     0.000000000  0.375000000  0.875000000
     0.125000000  0.250000000  0.875000000
     0.125000000  0.375000000  0.750000000
     0.000000000  0.500000000  0.000000000
     0.000000000  0.625000000  0.125000000
     0.125000000  0.500000000  0.125000000
     0.125000000  0.625000000  0.000000000
     0.000000000  0.500000000  0.250000000
     0.000000000  0.625000000  0.375000000
     0.125000000  0.500000000  0.375000000
     0.125000000  0.625000000  0.250000000
     0.000000000  0.500000000  0.500000000
     0.000000000  0.625000000  0.625000000
     0.125000000  0.500000000  0.625000000
     0.125000000  0.625000000  0.500000000
     0.000000000  0.500000000  0.750000000
     0.000000000  0.625000000  0.875000000
     0.125000000  0.500000000  0.875000000
     0.125000000  0.625000000  0.750000000
     0.000000000  0.750000000  0.000000000
     0.000000000  0.875000000  0.125000000
     0.125000000  0.750000000  0.125000000
     0.125000000  0.875000000  0.000000000
     0.000000000  0.750000000  0.250000000
     0.000000000  0.875000000  0.375000000
[...]
   0.592E-14 -.890E-13 -.504E+02   -.219E-13 -.668E-15 0.530E+02   0.217E-25 0.103E-24 -.267E+01   -.211E-12 0.200E-12 -.662E-05
   0.648E-14 -.504E+02 0.640E-06   -.411E-13 0.530E+02 -.102E-13   0.263E-24 -.267E+01 0.000E+00   -.386E-12 -.662E-05 -.537E-12
   0.527E+01 0.235E-13 -.918E+01   -.529E+01 0.275E-13 0.924E+01   0.193E-01 -.310E-24 -.558E-01   -.270E-05 0.269E-12 0.982E-05
   0.189E+01 -.189E+01 -.316E+01   -.185E+01 0.185E+01 0.314E+01   -.328E-01 0.328E-01 0.205E-01   -.264E-05 0.264E-05 0.998E-05
   -.180E-14 -.927E-13 -.500E+01   0.556E-13 0.467E-13 0.493E+01   -.218E-24 -.646E-25 0.788E-01   0.849E-13 0.776E-13 0.101E-04
   0.580E-14 -.527E+01 -.918E+01   0.899E-14 0.529E+01 0.924E+01   -.336E-24 -.193E-01 -.558E-01   -.190E-12 0.270E-05 0.982E-05
   0.140E+01 -.140E-13 -.215E-06   -.136E+01 0.153E-13 0.178E-14   -.347E-01 -.517E-25 -.129E-25   -.380E-05 0.107E-12 0.575E-12
   0.189E+01 -.189E+01 0.316E+01   -.185E+01 0.185E+01 -.314E+01   -.328E-01 0.328E-01 -.205E-01   -.264E-05 0.264E-05 -.998E-05
   0.829E-14 0.142E-12 0.500E+01   0.231E-13 -.180E-13 -.493E+01   0.130E-25 0.517E-25 -.788E-01   0.165E-12 -.298E-13 -.101E-04
   0.366E-14 -.140E+01 0.215E-06   -.443E-14 0.136E+01 -.311E-14   0.170E-24 0.347E-01 0.775E-25   0.340E-13 0.380E-05 0.485E-12
   0.527E+01 -.241E-13 0.918E+01   -.529E+01 -.107E-13 -.924E+01   0.193E-01 0.103E-24 0.558E-01   -.270E-05 0.156E-12 -.982E-05
   0.116E+02 -.116E+02 0.116E+02   -.112E+02 0.112E+02 -.112E+02   -.406E+00 0.406E+00 -.406E+00   -.283E-05 0.283E-05 -.283E-05
   -.939E-14 0.342E-13 0.504E+02   0.298E-13 0.266E-14 -.530E+02   0.288E-25 0.297E-24 0.267E+01   -.291E-12 0.935E-13 0.662E-05
   0.286E-14 -.527E+01 0.918E+01   -.133E-13 0.529E+01 -.924E+01   0.563E-24 -.193E-01 0.558E-01   -.116E-12 0.270E-05 -.982E-05
   0.527E+01 -.918E+01 -.301E-06   -.529E+01 0.924E+01 -.711E-14   0.193E-01 -.558E-01 -.103E-24   -.270E-05 0.982E-05 -.440E-12
   0.189E+01 -.316E+01 -.189E+01   -.185E+01 0.314E+01 0.185E+01   -.328E-01 0.205E-01 0.328E-01   -.264E-05 0.998E-05 0.264E-05
   0.324E-14 -.918E+01 -.527E+01   0.300E-13 0.924E+01 0.529E+01   0.642E-24 -.558E-01 -.193E-01   -.288E-12 0.982E-05 0.270E-05
   -.239E-14 -.500E+01 -.327E-06   0.124E-14 0.493E+01 -.700E-14   -.868E-25 0.788E-01 -.116E-24   -.201E-13 0.101E-04 -.342E-12
   0.228E+01 -.391E+01 -.391E+01   -.230E+01 0.388E+01 0.388E+01   0.278E-01 0.294E-01 0.294E-01   -.331E-05 0.837E-05 0.837E-05
   0.750E+00 -.126E+01 -.126E+01   -.754E+00 0.124E+01 0.124E+01   0.368E-02 0.136E-01 0.136E-01   0.789E-06 0.214E-05 0.214E-05
   0.268E-14 -.261E+01 -.245E+01   -.255E-14 0.255E+01 0.243E+01   0.669E-24 0.625E-01 0.264E-01   -.230E-12 0.610E-05 0.964E-05
   0.321E-14 -.245E+01 -.261E+01   0.554E-15 0.243E+01 0.255E+01   -.881E-24 0.264E-01 0.625E-01   -.301E-12 0.964E-05 0.610E-05
   0.942E+00 -.177E+01 0.487E-07   -.923E+00 0.173E+01 -.150E-14   -.187E-01 0.439E-01 0.646E-25   0.148E-05 0.279E-05 0.214E-12
   0.750E+00 -.126E+01 0.126E+01   -.754E+00 0.124E+01 -.124E+01   0.368E-02 0.136E-01 -.136E-01   0.789E-06 0.214E-05 -.214E-05
   0.605E-14 -.261E+01 0.245E+01   0.378E-13 0.255E+01 -.243E+01   -.109E-23 0.625E-01 -.264E-01   0.648E-14 0.610E-05 -.964E-05
   -.651E-15 -.104E+01 -.143E-06   -.477E-14 0.106E+01 -.278E-14   0.989E-24 -.207E-01 0.181E-24   -.122E-13 -.187E-05 0.170E-12
   0.228E+01 -.391E+01 0.391E+01   -.230E+01 0.388E+01 -.388E+01   0.278E-01 0.294E-01 -.294E-01   -.331E-05 0.837E-05 -.837E-05
   0.189E+01 -.316E+01 0.189E+01   -.185E+01 0.314E+01 -.185E+01   -.328E-01 0.205E-01 -.328E-01   -.264E-05 0.998E-05 -.264E-05
   0.436E-14 -.918E+01 0.527E+01   0.543E-13 0.924E+01 -.529E+01   -.213E-24 -.558E-01 0.193E-01   -.188E-12 0.982E-05 -.270E-05
   0.584E-14 -.245E+01 0.261E+01   -.274E-13 0.243E+01 -.255E+01   0.296E-24 0.264E-01 -.625E-01   0.101E-12 0.964E-05 -.610E-05
   0.140E+01 0.854E-14 -.223E-06   -.136E+01 -.221E-13 0.333E-14   -.347E-01 -.129E-25 0.233E-24   -.380E-05 -.353E-12 -.203E-12
   0.189E+01 0.316E+01 -.189E+01   -.185E+01 -.314E+01 0.185E+01   -.328E-01 -.205E-01 0.328E-01   -.264E-05 -.998E-05 0.264E-05
   0.593E-14 0.113E-12 -.140E+01   0.522E-14 0.114E-14 0.136E+01   0.259E-24 0.517E-25 0.347E-01   -.596E-13 -.212E-12 0.380E-05
   0.603E-14 0.500E+01 0.327E-06   0.544E-13 -.493E+01 0.269E-17   -.123E-24 -.788E-01 -.517E-25   0.204E-12 -.101E-04 -.435E-12
   0.942E+00 -.446E-13 -.177E+01   -.923E+00 0.144E-13 0.173E+01   -.187E-01 -.200E-24 0.439E-01   0.148E-05 -.312E-12 0.279E-05
   0.750E+00 0.126E+01 -.126E+01   -.754E+00 -.124E+01 0.124E+01   0.368E-02 -.136E-01 0.136E-01   0.789E-06 -.214E-05 0.214E-05
   0.350E-14 0.181E-12 -.104E+01   -.157E-13 -.257E-13 0.106E+01   -.358E-24 0.291E-25 -.207E-01   -.108E-12 -.162E-12 -.187E-05
   0.759E-14 0.245E+01 -.261E+01   0.419E-13 -.243E+01 0.255E+01   0.111E-23 -.264E-01 0.625E-01   -.150E-12 -.964E-05 0.610E-05
   0.504E+00 -.257E-13 0.181E-06   -.519E+00 -.222E-13 -.184E-13   0.154E-01 0.155E-24 0.103E-24   -.421E-07 -.251E-12 -.104E-12
   0.750E+00 0.126E+01 0.126E+01   -.754E+00 -.124E+01 -.124E+01   0.368E-02 -.136E-01 -.136E-01   0.789E-06 -.214E-05 -.214E-05
   0.934E-15 -.221E-13 0.104E+01   -.395E-13 0.136E-14 -.106E+01   0.626E-24 0.775E-25 0.207E-01   0.270E-12 -.661E-13 0.187E-05
   0.215E-14 0.104E+01 0.143E-06   0.306E-13 -.106E+01 -.891E-15   0.585E-24 0.207E-01 -.517E-25   0.169E-12 0.187E-05 0.269E-12
   0.942E+00 0.512E-13 0.177E+01   -.923E+00 -.404E-14 -.173E+01   -.187E-01 -.362E-24 -.439E-01   0.148E-05 -.261E-12 -.279E-05
   0.189E+01 0.316E+01 0.189E+01   -.185E+01 -.314E+01 -.185E+01   -.328E-01 -.205E-01 -.328E-01   -.264E-05 -.998E-05 -.264E-05
   0.299E-14 0.866E-13 0.140E+01   0.175E-13 0.218E-13 -.136E+01   -.492E-25 0.646E-25 -.347E-01   0.268E-12 -.119E-12 -.380E-05
   0.508E-14 0.245E+01 0.261E+01   0.356E-14 -.243E+01 -.255E+01   -.781E-24 -.264E-01 -.625E-01   0.419E-12 -.964E-05 -.610E-05
   0.527E+01 0.918E+01 0.123E-05   -.529E+01 -.924E+01 0.355E-14   0.193E-01 0.558E-01 -.181E-24   -.270E-05 -.982E-05 -.548E-12
   0.116E+02 0.116E+02 -.116E+02   -.112E+02 -.112E+02 0.112E+02   -.406E+00 -.406E+00 0.406E+00   -.283E-05 -.283E-05 0.283E-05
   0.465E-14 0.918E+01 -.527E+01   0.181E-13 -.924E+01 0.529E+01   0.666E-24 0.558E-01 -.193E-01   -.238E-13 -.982E-05 0.270E-05
   0.278E-14 0.504E+02 -.640E-06   0.471E-13 -.530E+02 -.311E-14   0.338E-26 0.267E+01 0.103E-24   -.158E-12 0.662E-05 -.640E-12
   0.228E+01 0.391E+01 -.391E+01   -.230E+01 -.388E+01 0.388E+01   0.278E-01 -.294E-01 0.294E-01   -.331E-05 -.837E-05 0.837E-05
   0.189E+01 0.189E+01 -.316E+01   -.185E+01 -.185E+01 0.314E+01   -.328E-01 -.328E-01 0.205E-01   -.264E-05 -.264E-05 0.998E-05
   0.114E-13 0.261E+01 -.245E+01   -.479E-13 -.255E+01 0.243E+01   0.766E-24 -.625E-01 0.264E-01   -.581E-13 -.610E-05 0.964E-05
   0.733E-14 0.527E+01 -.918E+01   0.321E-13 -.529E+01 0.924E+01   -.129E-24 0.193E-01 -.558E-01   -.561E-13 -.270E-05 0.982E-05
   0.942E+00 0.177E+01 -.295E-06   -.923E+00 -.173E+01 0.438E-14   -.187E-01 -.439E-01 0.155E-24   0.148E-05 -.279E-05 0.267E-12
   0.189E+01 0.189E+01 0.316E+01   -.185E+01 -.185E+01 -.314E+01   -.328E-01 -.328E-01 -.205E-01   -.264E-05 -.264E-05 -.998E-05
   0.716E-14 0.261E+01 0.245E+01   0.302E-13 -.255E+01 -.243E+01   -.358E-24 -.625E-01 -.264E-01   0.374E-12 -.610E-05 -.964E-05
   0.892E-14 0.140E+01 -.215E-06   -.757E-14 -.136E+01 0.134E-14   0.244E-25 -.347E-01 0.202E-25   0.197E-12 -.380E-05 0.591E-12
[...]
   0.918E+01 0.527E+01 0.123E-05   -.924E+01 -.529E+01 0.710E-14   0.558E-01 0.193E-01 0.517E-25   -.982E-05 -.270E-05 -.814E-12
   0.129E+01 0.148E+01 -.148E+01   -.131E+01 -.148E+01 0.148E+01   0.251E-01 -.324E-02 0.324E-02   -.438E-05 -.292E-05 0.292E-05
   0.126E+01 0.750E+00 -.126E+01   -.124E+01 -.754E+00 0.124E+01   -.136E-01 0.368E-02 0.136E-01   -.214E-05 0.789E-06 0.214E-05
   0.148E+01 0.148E+01 -.129E+01   -.148E+01 -.148E+01 0.131E+01   -.324E-02 -.324E-02 -.251E-01   -.292E-05 -.292E-05 0.438E-05
   0.391E+01 0.228E+01 -.391E+01   -.388E+01 -.230E+01 0.388E+01   -.294E-01 0.278E-01 0.294E-01   -.837E-05 -.331E-05 0.837E-05
   0.791E+00 0.930E+00 -.194E-06   -.788E+00 -.916E+00 -.313E-14   -.345E-02 -.147E-01 -.414E-24   -.192E-05 -.316E-05 0.236E-12
   0.126E+01 0.750E+00 0.126E+01   -.124E+01 -.754E+00 -.124E+01   -.136E-01 0.368E-02 -.136E-01   -.214E-05 0.789E-06 -.214E-05
   0.148E+01 0.148E+01 0.129E+01   -.148E+01 -.148E+01 -.131E+01   -.324E-02 -.324E-02 0.251E-01   -.292E-05 -.292E-05 -.438E-05
   0.177E+01 0.942E+00 -.295E-06   -.173E+01 -.923E+00 -.628E-14   -.439E-01 -.187E-01 0.000E+00   -.279E-05 0.148E-05 0.473E-12
   0.129E+01 0.148E+01 0.148E+01   -.131E+01 -.148E+01 -.148E+01   0.251E-01 -.324E-02 -.324E-02   -.438E-05 -.292E-05 -.292E-05
   0.316E+01 0.189E+01 0.189E+01   -.314E+01 -.185E+01 -.185E+01   -.205E-01 -.328E-01 -.328E-01   -.998E-05 -.264E-05 -.264E-05
   0.391E+01 0.391E+01 0.228E+01   -.388E+01 -.388E+01 -.230E+01   -.294E-01 -.294E-01 0.278E-01   -.837E-05 -.837E-05 -.331E-05
   0.391E+01 0.228E+01 0.391E+01   -.388E+01 -.230E+01 -.388E+01   -.294E-01 0.278E-01 -.294E-01   -.837E-05 -.331E-05 -.837E-05
   0.241E-12 -.648E-14 0.668E-11   0.191E-13 0.209E-13 0.446E-15   -.130E-24 -.620E-24 0.000E+00   -.789E-12 0.357E-12 -.132E-11
   0.733E-12 0.269E-11 0.233E-10   -.803E-12 -.371E-12 -.123E-12   0.180E-14 0.340E-15 0.788E-15   -.727E-12 0.352E-12 -.129E-11

 POSITION                                       TOTAL-FORCE (eV/Angst)
     -0.08160     -0.00000      0.00000         0.000176     -0.000000     -0.000000
      0.01405      2.01070      2.01070         0.000268     -0.000268     -0.000268
      2.02475     -0.00000      2.10635         0.000000     -0.000000     -0.000176
      2.02475      2.10635      0.00000         0.000000     -0.000176     -0.000000
     -0.00914     -0.00000      4.06644         0.000018     -0.000000      0.000031
      0.00093      2.02382      6.07866         0.000038     -0.000038      0.000044
      2.02475     -0.00000      6.06468         0.000000     -0.000000      0.000301
      2.02475      2.03389      4.06644         0.000000     -0.000018      0.000031
      0.00429     -0.00000      8.09900        -0.000246     -0.000000     -0.000000
      0.00093      2.02382     10.11934         0.000038     -0.000038     -0.000044
      2.02475     -0.00000     10.13332         0.000000     -0.000000     -0.000301
      2.02475      2.02046      8.09900         0.000000      0.000246     -0.000000
     -0.00914     -0.00000     12.13156         0.000018     -0.000000     -0.000031
      0.01405      2.01070     14.18730         0.000268     -0.000268      0.000268
      2.02475     -0.00000     14.09165         0.000000     -0.000000      0.000176
      2.02475      2.03389     12.13156         0.000000     -0.000018     -0.000031
     -0.00914      4.06644      0.00000         0.000018      0.000031     -0.000000
      0.00093      6.07866      2.02382         0.000038      0.000044     -0.000038
      2.02475      4.06644      2.03389         0.000000      0.000031     -0.000018
      2.02475      6.06468      0.00000         0.000000      0.000301     -0.000000
      0.00173      4.04192      4.04192        -0.000052     -0.000185     -0.000185
     -0.00087      6.07163      6.07163         0.000082      0.000011      0.000011
      2.02475      4.04903      6.07457         0.000000      0.000053     -0.000024
      2.02475      6.07457      4.04903         0.000000     -0.000024      0.000053
      0.00235      4.04622      8.09900        -0.000004      0.000034     -0.000000
     -0.00087      6.07163     10.12637         0.000082      0.000011     -0.000011
      2.02475      4.04903     10.12343         0.000000      0.000053      0.000024
      2.02475      6.07711      8.09900         0.000000      0.000122     -0.000000
      0.00173      4.04192     12.15608        -0.000052     -0.000185      0.000185
      0.00093      6.07866     14.17418         0.000038      0.000044      0.000038
      2.02475      4.06644     14.16411         0.000000      0.000031      0.000018
      2.02475      6.07457     12.14897         0.000000     -0.000024     -0.000053
      0.00429      8.09900      0.00000        -0.000246     -0.000000     -0.000000
      0.00093     10.11934      2.02382         0.000038     -0.000044     -0.000038
      2.02475      8.09900      2.02046         0.000000     -0.000000      0.000246
      2.02475     10.13332      0.00000         0.000000     -0.000301     -0.000000
      0.00235      8.09900      4.04622        -0.000004     -0.000000      0.000034
     -0.00087     10.12637      6.07163         0.000082     -0.000011      0.000011
      2.02475      8.09900      6.07711         0.000000     -0.000000      0.000122
      2.02475     10.12343      4.04903         0.000000      0.000024      0.000053
     -0.00347      8.09900      8.09900        -0.000385     -0.000000     -0.000000
     -0.00087     10.12637     10.12637         0.000082     -0.000011     -0.000011
      2.02475      8.09900     10.12089         0.000000     -0.000000     -0.000122
      2.02475     10.12089      8.09900         0.000000     -0.000122     -0.000000
      0.00235      8.09900     12.15178        -0.000004     -0.000000     -0.000034
      0.00093     10.11934     14.17418         0.000038     -0.000044      0.000038
      2.02475      8.09900     14.17754         0.000000     -0.000000     -0.000246
      2.02475     10.12343     12.14897         0.000000      0.000024     -0.000053
     -0.00914     12.13156      0.00000         0.000018     -0.000031     -0.000000
      0.01405     14.18730      2.01070         0.000268      0.000268     -0.000268
      2.02475     12.13156      2.03389         0.000000     -0.000031     -0.000018
      2.02475     14.09165      0.00000         0.000000      0.000176     -0.000000
      0.00173     12.15608      4.04192        -0.000052      0.000185     -0.000185
      0.00093     14.17418      6.07866         0.000038      0.000038      0.000044
      2.02475     12.14897      6.07457         0.000000     -0.000053     -0.000024
      2.02475     14.16411      4.06644         0.000000      0.000018      0.000031
      0.00235     12.15178      8.09900        -0.000004     -0.000034     -0.000000
      0.00093     14.17418     10.11934         0.000038      0.000038     -0.000044
      2.02475     12.14897     10.12343         0.000000     -0.000053      0.000024
      2.02475     14.17754      8.09900         0.000000     -0.000246     -0.000000
[...]
     14.18083     12.15608      2.02302         0.000185      0.000185      0.000052
     14.15631     14.16411      0.00000        -0.000031      0.000018     -0.000000
     12.14871     12.14926      4.04874         0.000100      0.000118     -0.000118
     12.15112     14.17238      6.07163        -0.000011      0.000082      0.000011
     14.17401     12.14926      6.07404         0.000118      0.000118     -0.000100
     14.18083     14.17498      4.04192         0.000185     -0.000052     -0.000185
     12.15003     12.15067      8.09900         0.000008     -0.000183     -0.000000
     12.15112     14.17238     10.12637        -0.000011      0.000082     -0.000011
     14.17401     12.14926     10.12396         0.000118      0.000118      0.000100
     14.17653     14.17560      8.09900        -0.000034     -0.000004     -0.000000
     12.14871     12.14926     12.14926         0.000100      0.000118      0.000118
     12.14409     14.17418     14.17418        -0.000044      0.000038      0.000038
     14.18083     12.15608     14.17498         0.000185      0.000185     -0.000052
     14.18083     14.17498     12.15608         0.000185     -0.000052      0.000185
      2.02475     -0.00000      0.00000         0.000000     -0.000000     -0.000000
    total drift:                               -0.000000      0.000000      0.000000

  FREE ENERGIE OF THE ION-ELECTRON SYSTEM (eV)
  free  energy   TOTEN  =     -1054.01595137 eV

  energy  without entropy=    -1053.82796436  energy(sigma->0) =    -1053.92195786

 d Force = 0.4876720E-06[-0.397E-06, 0.137E-05]  d Energy = 0.1140827E-05-0.653E-06
 d Force = 0.1119625E-01[ 0.112E-01, 0.112E-01]  d Ewald  = 0.1119635E-01-0.984E-07

 stress matrix after NEB project (eV)
   -100.45577      0.00000     -0.00000
      0.00000   -100.45577     -0.00000
     -0.00000      0.00000   -100.45577
  FORCES: max atom, RMS     0.000464    0.000180
  FORCE total and by dimension    0.002891    0.000385
  Stress total and by dimension  173.994498  100.455770

 reached required accuracy - stopping structural energy minimisation