 vasp.6.2.1 16May21 (build Jun 16 2021 03:23:30) complex
 executed on             LinuxPGI date 2022.04.23  23:00:39

 INCAR:
   SYSTEM = NiAl
   ISTART = 0
   EDIFF = 1E-7
   NELMIN = 6
   IVDW = 12
   LWAVE = .FALSE.
   LCHARG = .FALSE.
   LREAL = Auto
   NCORE = 1
   LPLANE = .TRUE.
   ENCUT = 360.00 eV
   ISMEAR = 0
   SIGMA = 0.05

 POTCAR:    PAW Al_GW 19Mar2012
 POTCAR:    PAW Al_GW 19Mar2012
   VRHFIN =Al: s2p1

   TITEL  = PAW Al_GW 19Mar2012
   POMASS =   26.982; ZVAL   =    3.000    mass and valenz
   ENMAX  =  240.300; ENMIN  =  180.225 eV

 Optimization of the real space projectors (new method)

 maximal supplied QI-value         = 18.90
 optimisation between [QCUT,QGAM] = [  9.64, 19.28] = [ 26.01,104.04] Ry
 Optimized for a Real-space Cutoff    1.46 Angstroem

   l    n(q)    QCUT    max X(q) W(low)/X(q) W(high)/X(q)  e(spline)
   0      8     9.638    11.519    0.10E-03    0.23E-03    0.86E-07
   0      8     9.638     5.834    0.72E-04    0.17E-03    0.68E-07
   1      8     9.638    10.132    0.33E-03    0.11E-03    0.32E-06
   1      8     9.638     3.004    0.25E-03    0.10E-03    0.24E-06
   2      7     9.638     3.169    0.30E-03    0.50E-03    0.35E-06
   2      7     9.638     1.607    0.15E-03    0.13E-03    0.12E-06
  PAW Al_GW 19Mar2012                   :

 POSCAR: New structure
  positions in cartesian coordinates
 exchange correlation table for  LEXCH =        8
   RHO(1)=    0.500       N(1)  =     2000
   RHO(2)=  100.500       N(2)  =     4000

 VTST: version 4.1, (05/19/21)

 CHAIN: initializing optimizer

 OPT: Using VASP Dynamics algorithm
 CHAIN: Read ICHAIN             0

 POSCAR: New structure
  positions in cartesian coordinates

 ion  position               nearest neighbor table
   1  0.000  0.000  0.000-
   2  0.000  0.125  0.125-
   3  0.125  0.000  0.125-
   4  0.125  0.125  0.000-
   5  0.000  0.000  0.250-
   6  0.000  0.125  0.375-
   7  0.125  0.000  0.375-
   8  0.125  0.125  0.250-
   9  0.000  0.000  0.500-
  10  0.000  0.125  0.625-
  11  0.125  0.000  0.625-
  12  0.125  0.125  0.500-
  13  0.000  0.000  0.750-
  14  0.000  0.125  0.875-
  15  0.125  0.000  0.875-
  16  0.125  0.125  0.750-
  17  0.000  0.250  0.000-
  18  0.000  0.375  0.125-
  19  0.125  0.250  0.125-
  20  0.125  0.375  0.000-
  21  0.000  0.250  0.250-
  22  0.000  0.375  0.375-
  23  0.125  0.250  0.375-
  24  0.125  0.375  0.250-
  25  0.000  0.250  0.500-
  26  0.000  0.375  0.625-
  27  0.125  0.250  0.625-
  28  0.125  0.375  0.500-
  29  0.000  0.250  0.750-
  30  0.000  0.375  0.875-
  31  0.125  0.250  0.875-
  32  0.125  0.375  0.750-
  33  0.000  0.500  0.000-
  34  0.000  0.625  0.125-
  35  0.125  0.500  0.125-
  36  0.125  0.625  0.000-
  37  0.000  0.500  0.250-
  38  0.000  0.625  0.375-
  39  0.125  0.500  0.375-
  40  0.125  0.625  0.250-
  41  0.000  0.500  0.500-
  42  0.000  0.625  0.625-
  43  0.125  0.500  0.625-
  44  0.125  0.625  0.500-
  45  0.000  0.500  0.750-
  46  0.000  0.625  0.875-
  47  0.125  0.500  0.875-
  48  0.125  0.625  0.750-
  49  0.000  0.750  0.000-
  50  0.000  0.875  0.125-
  51  0.125  0.750  0.125-
  52  0.125  0.875  0.000-
  53  0.000  0.750  0.250-
  54  0.000  0.875  0.375-
  55  0.125  0.750  0.375-
  56  0.125  0.875  0.250-
  57  0.000  0.750  0.500-
  58  0.000  0.875  0.625-
  59  0.125  0.750  0.625-
  60  0.125  0.875  0.500-
[...]
 242  0.750  0.875  0.125-
 243  0.875  0.750  0.125-
 244  0.875  0.875  0.000-
 245  0.750  0.750  0.250-
 246  0.750  0.875  0.375-
 247  0.875  0.750  0.375-
 248  0.875  0.875  0.250-
 249  0.750  0.750  0.500-
 250  0.750  0.875  0.625-
 251  0.875  0.750  0.625-
 252  0.875  0.875  0.500-
 253  0.750  0.750  0.750-
 254  0.750  0.875  0.875-
 255  0.875  0.750  0.875-
 256  0.875  0.875  0.750-

  LATTYP: Found a simple cubic cell.
 ALAT       =    16.1980000000

  Lattice vectors:

 A1 = (  16.1980000000,   0.0000000000,   0.0000000000)
 A2 = (   0.0000000000,  16.1980000000,   0.0000000000)
 A3 = (   0.0000000000,   0.0000000000,  16.1980000000)

Analysis of symmetry for initial positions (statically):
 Subroutine PRICEL returns following result:

  LATTYP: Found a face centered cubic cell.
 ALAT       =     4.0495000000

[...]

 256 primitive cells build up your supercell.

 Routine SETGRP: Setting up the symmetry group for a
 simple cubic supercell.

 Subroutine GETGRP returns: Found 48 space group operations
 (whereof 48 operations were pure point group operations)
 out of a pool of 48 trial point group operations.

The static configuration has the point symmetry O_h .

Analysis of symmetry for dynamics (positions and initial velocities):
 Subroutine PRICEL returns following result:

  LATTYP: Found a face centered cubic cell.
 ALAT       =     4.0495000000

  Lattice vectors:

 A1 = (   2.0247500000,  -2.0247500000,   0.0000000000)
 A2 = (   2.0247500000,   0.0000000000,   2.0247500000)
 A3 = (   0.0000000000,  -2.0247500000,   2.0247500000)

 256 primitive cells build up your supercell.

 Routine SETGRP: Setting up the symmetry group for a
 simple cubic supercell.

 Subroutine GETGRP returns: Found 48 space group operations
 (whereof 48 operations were pure point group operations)
 out of a pool of 48 trial point group operations.

The dynamic configuration has the point symmetry O_h .

 Subroutine INISYM returns: Found 48 space group operations
 (whereof 48 operations are pure point group operations),
 and found   256 'primitive' translations

                                     Primitive cell

  volume of cell :      16.6014

  direct lattice vectors                    reciprocal lattice vectors
     2.024750000 -2.024750000  0.000000000     0.246944067 -0.246944067 -0.246944067
     2.024750000  0.000000000  2.024750000     0.246944067  0.246944067  0.246944067
     0.000000000 -2.024750000  2.024750000    -0.246944067 -0.246944067  0.246944067

  length of vectors
     2.863428910  2.863428910  2.863428910     0.427719671  0.427719671  0.427719671

  position of ions in fractional coordinates (direct lattice)
     0.000000000  0.000000000  0.000000000

  ion indices of the primitive-cell ions
   primitive index   ion index
                 1           1

 KPOINTS: Automatic generation

Automatic generation of k-mesh.
 Grid dimensions read from file:
 generate k-points for:    2    2    2

 Generating k-lattice:

  Cartesian coordinates                     Fractional coordinates (reciprocal lattice)
     0.030868008  0.000000000  0.000000000     0.500000000  0.000000000  0.000000000
     0.000000000  0.030868008  0.000000000     0.000000000  0.500000000  0.000000000
     0.000000000  0.000000000  0.030868008     0.000000000  0.000000000  0.500000000

  Length of vectors
     0.030868008  0.030868008  0.030868008

  Shift w.r.t. Gamma in fractional coordinates (k-lattice)
     0.000000000  0.000000000  0.000000000

 Subroutine IBZKPT returns following result:

 Found      4 irreducible k-points:

 Following reciprocal coordinates:
            Coordinates               Weight
  0.000000  0.000000  0.000000      1.000000
  0.500000  0.000000  0.000000      3.000000
  0.500000  0.500000  0.000000      3.000000
  0.500000  0.500000  0.500000      1.000000

 Following cartesian coordinates:
            Coordinates               Weight
  0.000000  0.000000  0.000000      1.000000
  0.030868  0.000000  0.000000      3.000000
  0.030868  0.030868  0.000000      3.000000
  0.030868  0.030868  0.030868      1.000000

 SYSTEM =  NiAl
 POSCAR =  New structure

 Startparameter for this run:
   NWRITE =      2    write-flag & timer
   PREC   = normal    normal or accurate (medium, high low for compatibility)
   ISTART =      0    job   : 0-new  1-cont  2-samecut
   ICHARG =      2    charge: 1-file 2-atom 10-const
   ISPIN  =      1    spin polarized calculation?
   LNONCOLLINEAR =      F non collinear calculations
   LSORBIT =      F    spin-orbit coupling
   INIWAV =      1    electr: 0-lowe 1-rand  2-diag
   LASPH  =      F    aspherical Exc in radial PAW
 Electronic Relaxation 1
   ENCUT  =  360.0 eV  26.46 Ry    5.14 a.u.  25.06 25.06 25.06*2*pi/ulx,y,z
   ENINI  =  360.0     initial cutoff
   ENAUG  =  482.1 eV  augmentation charge cutoff
   NELM   =     60;   NELMIN=  6; NELMDL= -5     # of ELM steps
   EDIFF  = 0.1E-06   stopping-criterion for ELM
   LREAL  =      T    real-space projection
   NLSPLINE    = F    spline interpolate recip. space projectors
   LCOMPAT=      F    compatible to vasp.4.4
   GGA_COMPAT  = T    GGA compatible to vasp.4.4-vasp.4.6
   LMAXPAW     = -100 max onsite density
   LMAXMIX     =    2 max onsite mixed and CHGCAR
   VOSKOWN=      0    Vosko Wilk Nusair interpolation
   ROPT   =   -0.00050
 Ionic relaxation
   EDIFFG = 0.1E-05   stopping-criterion for IOM
   NSW    =      0    number of steps for IOM
   NBLOCK =      1;   KBLOCK =      1    inner block; outer block
   IBRION =     -1    ionic relax: 0-MD 1-quasi-New 2-CG
   NFREE  =      0    steps in history (QN), initial steepest desc. (CG)
   ISIF   =      2    stress and relaxation
   IWAVPR =     10    prediction:  0-non 1-charg 2-wave 3-comb
   ISYM   =      2    0-nonsym 1-usesym 2-fastsym
   LCORR  =      T    Harris-Foulkes like correction to forces

   POTIM  = 0.5000    time-step for ionic-motion
   TEIN   =    0.0    initial temperature
   TEBEG  =    0.0;   TEEND  =   0.0 temperature during run
   SMASS  =  -3.00    Nose mass-parameter (am)
   estimated Nose-frequenzy (Omega)   =  0.10E-29 period in steps = 0.13E+47 mass=  -0.600E-26a.u.
   SCALEE = 1.0000    scale energy and forces
   NPACO  =    256;   APACO  = 16.0  distance and # of slots for P.C.
   PSTRESS=    0.0 pullay stress

  Mass of Ions in am
   POMASS =  26.98
  Ionic Valenz
   ZVAL   =   3.00
  Atomic Wigner-Seitz radii
  virtual crystal weights
   VCA    =   1.00
   NELECT =     768.0000    total number of electrons
   NUPDOWN=      -1.0000    fix difference up-down

 DOS related values:
   EMIN   =  10.00;   EMAX   =-10.00  energy-range for DOS
   EFERMI =   0.00
   ISMEAR =     0;   SIGMA  =   0.05  broadening in eV -4-tet -1-fermi 0-gaus

 Electronic relaxation 2 (details)
   IALGO  =     38    algorithm
   LDIAG  =      T    sub-space diagonalisation (order eigenvalues)
   LSUBROT=      F    optimize rotation matrix (better conditioning)
   TURBO    =      0    0=normal 1=particle mesh
   IRESTART =      0    0=no restart 2=restart with 2 vectors
   NREBOOT  =      0    no. of reboots
   NMIN     =      0    reboot dimension
   EREF     =   0.00    reference energy to select bands
   IMIX   =      4    mixing-type and parameters
     AMIX     =   0.40;   BMIX     =  1.00
     AMIX_MAG =   1.60;   BMIX_MAG =  1.00
     AMIN     =   0.10
     WC   =   100.;   INIMIX=   1;  MIXPRE=   1;  MAXMIX= -45

 Intra band minimization:
   WEIMIN = 0.0000     energy-eigenvalue tresh-hold
   EBREAK =  0.49E-10  absolut break condition
   DEPER  =   0.30     relativ break condition

   TIME   =   0.40     timestep for ELM

  volume/ion in A,a.u.               =      16.60       112.03
  Fermi-wavevector in a.u.,A,eV,Ry     =   0.925551  1.749038 11.655366  0.856645
  Thomas-Fermi vector in A             =   2.051418
[...]
   -.170E-14 0.179E-13 0.157E-13   0.119E-12 -.375E-13 -.977E-14   0.125E-23 -.969E-25 0.950E-24   0.170E-14 -.499E-13 -.234E-13
   0.367E-16 0.759E-15 -.251E-15   0.304E-13 -.266E-14 0.200E-14   0.662E-24 -.645E-24 -.418E-24   0.155E-13 0.775E-13 0.518E-13
   0.200E-14 -.711E-14 -.167E-13   0.355E-14 -.899E-14 -.444E-15   0.843E-24 -.188E-24 0.151E-24   -.580E-13 -.198E-13 0.445E-13
   0.264E-14 -.859E-13 0.362E-13   -.626E-13 -.666E-15 0.977E-14   0.206E-24 0.323E-26 0.517E-24   -.376E-13 0.555E-13 -.140E-13
   -.203E-14 0.160E-14 0.121E-13   0.119E-12 0.555E-15 0.829E-14   -.307E-24 -.351E-25 -.399E-24   0.203E-13 -.162E-13 0.642E-13
   -.274E-14 0.105E-13 0.487E-14   -.123E-13 -.105E-13 -.666E-15   -.230E-24 -.336E-24 -.107E-24   0.292E-13 0.641E-13 0.561E-13
   0.340E-14 0.102E-12 -.748E-13   0.500E-14 0.218E-13 -.622E-14   -.214E-24 0.881E-24 -.708E-24   0.531E-14 0.728E-14 0.825E-13
   0.160E-14 0.812E-15 -.116E-13   -.556E-13 -.488E-14 0.222E-14   0.416E-24 0.414E-24 0.764E-24   -.302E-13 0.770E-13 0.921E-13
   -.279E-14 0.685E-14 0.163E-13   0.171E-12 -.173E-13 0.666E-14   0.460E-24 -.684E-26 0.303E-24   0.417E-13 0.249E-13 0.243E-13
   -.101E-14 0.715E-14 0.116E-13   0.222E-15 0.488E-14 -.622E-14   0.218E-24 0.646E-26 -.358E-24   0.156E-13 0.827E-14 -.420E-13
   0.151E-14 -.909E-13 0.137E-13   -.488E-14 -.109E-13 -.888E-14   -.452E-25 0.691E-24 0.270E-24   0.216E-13 0.282E-14 -.404E-13
   0.191E-14 0.293E-13 -.309E-13   -.289E-13 0.222E-15 0.755E-14   0.409E-24 -.587E-24 -.105E-24   0.137E-13 0.196E-13 0.101E-13
   -.123E-14 0.775E-14 -.166E-13   0.137E-12 0.195E-13 0.666E-14   -.465E-24 0.903E-24 0.763E-24   0.183E-13 -.654E-14 -.652E-13
   -.108E-14 0.228E-13 0.177E-13   0.222E-13 -.102E-13 0.333E-14   -.157E-24 -.202E-24 0.397E-24   0.404E-14 0.195E-13 -.659E-13
   0.216E-14 -.240E-13 -.533E-14   0.471E-13 0.355E-14 0.155E-14   -.473E-24 0.237E-24 0.651E-24   -.341E-13 -.214E-13 -.864E-13
   0.258E-14 0.535E-13 -.707E-13   -.129E-13 -.142E-13 0.322E-14   -.124E-24 -.323E-25 -.121E-26   0.160E-14 -.177E-16 -.883E-13
   -.575E-16 0.131E-13 0.577E-14   -.933E-14 0.155E-13 -.688E-14   0.508E-24 -.385E-24 -.388E-25   -.830E-14 0.114E-12 0.346E-13
   -.733E-16 0.477E-14 0.571E-14   -.468E-13 0.658E-14 0.155E-14   0.224E-24 0.142E-24 0.717E-24   -.390E-13 0.116E-12 0.645E-13
   0.204E-14 0.245E-13 0.227E-13   -.578E-13 0.244E-14 -.167E-14   0.304E-24 0.419E-24 0.323E-26   -.448E-13 0.123E-12 0.661E-13
   0.380E-14 -.226E-13 -.236E-13   -.367E-13 0.138E-13 0.944E-14   0.355E-24 0.852E-24 -.794E-24   -.403E-13 0.783E-13 0.593E-13
   -.303E-14 0.134E-13 0.129E-13   -.672E-14 0.233E-14 0.787E-14   -.295E-24 0.449E-24 0.801E-24   0.706E-14 0.126E-12 0.514E-13
   -.244E-14 -.101E-13 -.118E-13   -.933E-14 0.441E-14 -.999E-15   -.617E-25 0.297E-24 0.291E-25   0.132E-13 0.371E-13 -.495E-13
   -.848E-15 0.142E-13 -.687E-14   -.323E-13 0.411E-14 -.622E-14   0.444E-24 -.616E-24 -.124E-24   -.173E-13 0.632E-13 0.259E-13
   0.172E-14 -.213E-13 0.234E-13   -.254E-13 -.617E-14 0.255E-14   0.286E-24 -.368E-24 0.582E-25   -.494E-13 0.701E-13 0.323E-13
   -.199E-14 0.323E-14 -.591E-14   -.655E-14 0.200E-13 0.833E-14   -.271E-24 -.317E-24 0.362E-24   0.214E-13 0.190E-13 -.306E-13
   0.727E-15 0.548E-14 -.280E-14   0.195E-13 -.182E-13 -.644E-14   0.534E-24 -.596E-24 -.291E-25   0.269E-13 -.197E-13 -.549E-13
   -.333E-15 0.185E-13 -.492E-13   -.341E-13 0.187E-13 -.711E-14   0.248E-24 -.204E-24 -.299E-25   0.112E-13 -.463E-14 -.598E-13
   -.561E-15 0.350E-13 -.316E-13   -.711E-14 -.286E-14 0.189E-14   -.231E-24 0.485E-25 -.132E-24   0.475E-14 0.639E-14 -.566E-13
   0.184E-15 0.109E-13 -.313E-14   -.243E-13 0.555E-14 0.162E-13   0.375E-24 0.582E-25 0.164E-24   0.765E-15 0.665E-14 -.552E-13
   0.152E-14 -.678E-15 -.728E-14   0.531E-13 0.434E-14 0.588E-14   0.283E-24 0.388E-24 -.627E-24   -.178E-13 0.543E-13 0.396E-13
   0.146E-14 0.300E-14 -.478E-13   -.371E-13 0.311E-14 0.522E-14   -.323E-24 0.238E-24 -.819E-24   -.105E-13 0.505E-13 -.324E-13
   0.234E-14 0.223E-13 -.855E-13   -.279E-13 -.164E-13 0.300E-14   -.379E-24 -.761E-24 0.766E-24   0.801E-14 0.995E-14 -.348E-13
   0.595E-15 0.113E-13 0.101E-13   0.109E-12 -.133E-14 -.699E-14   -.147E-24 0.394E-24 0.204E-24   -.623E-13 0.419E-13 0.976E-13
   -.175E-14 0.545E-14 0.640E-14   0.712E-13 -.366E-14 0.155E-14   0.167E-24 -.404E-25 0.440E-24   -.783E-13 -.618E-13 0.294E-13
   0.229E-14 -.913E-13 0.148E-14   -.483E-13 0.319E-13 -.139E-14   -.265E-24 0.969E-26 0.163E-24   -.724E-13 0.115E-13 0.570E-13
   0.144E-14 -.258E-15 -.643E-13   -.375E-13 -.355E-14 0.933E-14   0.158E-24 -.229E-24 0.200E-24   -.781E-13 -.444E-13 0.527E-13
   -.114E-14 -.660E-14 0.299E-14   0.551E-13 0.744E-14 0.776E-14   -.132E-24 0.894E-24 0.166E-24   -.370E-13 0.799E-14 -.290E-13
   -.256E-14 -.516E-14 0.372E-14   0.115E-12 -.170E-13 -.111E-14   -.106E-23 0.389E-24 -.252E-24   0.200E-13 -.545E-13 -.802E-13
   -.739E-15 -.221E-13 0.839E-14   -.572E-13 0.466E-14 -.616E-14   -.261E-24 0.368E-24 -.808E-27   -.166E-13 -.682E-14 -.381E-13
   -.625E-15 0.541E-13 -.240E-13   -.383E-13 -.160E-13 0.261E-14   -.134E-24 0.410E-24 0.123E-24   -.557E-13 -.656E-13 0.130E-13
   -.150E-14 0.235E-13 0.246E-13   0.857E-13 0.344E-13 0.810E-14   -.205E-24 -.969E-26 -.278E-24   0.499E-13 -.219E-13 -.873E-13
   -.117E-14 0.298E-13 0.342E-13   0.131E-12 0.577E-14 -.644E-14   -.627E-24 -.107E-24 -.288E-24   0.666E-13 -.272E-14 -.278E-13
   0.156E-14 -.204E-13 -.338E-13   -.354E-13 0.118E-13 -.699E-14   -.356E-24 0.242E-25 0.313E-24   0.232E-13 0.251E-15 -.570E-13
   -.336E-14 -.703E-15 0.620E-14   -.304E-13 0.799E-14 -.311E-14   -.381E-24 0.672E-24 -.439E-24   0.263E-13 -.176E-13 -.496E-13
   0.179E-14 0.111E-13 0.178E-13   0.113E-12 0.666E-15 0.162E-13   -.183E-24 0.145E-24 0.352E-24   0.185E-13 0.566E-14 0.188E-13
   -.500E-15 0.211E-13 -.103E-13   0.964E-13 0.311E-14 -.488E-14   0.732E-24 -.163E-24 0.441E-24   -.251E-13 -.864E-14 0.784E-13
   0.202E-14 0.690E-13 -.705E-13   -.226E-13 -.266E-14 0.344E-14   0.217E-24 -.162E-25 0.530E-24   -.238E-13 0.187E-13 0.379E-13
   0.620E-15 -.218E-13 -.249E-13   0.226E-13 0.533E-14 0.311E-14   -.185E-24 0.619E-24 -.506E-24   0.124E-15 0.377E-14 -.160E-13
   -.149E-15 -.187E-13 0.117E-13   0.873E-13 0.666E-14 -.666E-14   0.124E-24 -.523E-24 -.284E-24   -.557E-13 -.105E-12 0.433E-13
   -.309E-14 0.177E-13 0.233E-13   0.330E-13 -.211E-13 0.666E-15   -.218E-24 -.496E-24 -.107E-24   -.278E-13 -.132E-12 0.175E-13
   0.150E-14 -.338E-13 0.106E-13   0.341E-13 0.844E-14 -.266E-14   -.260E-24 -.103E-23 -.370E-24   -.895E-13 -.115E-12 0.354E-13
   0.255E-14 0.771E-13 -.973E-13   0.755E-13 -.171E-13 0.444E-15   -.308E-25 -.420E-24 -.473E-24   -.792E-13 -.894E-13 -.159E-13
   -.216E-14 -.729E-14 0.110E-13   0.624E-13 0.256E-13 0.741E-14   -.501E-24 0.465E-24 0.410E-24   -.273E-13 -.118E-12 -.201E-13
   -.340E-14 -.852E-14 -.180E-15   0.748E-13 0.711E-14 -.755E-14   0.203E-24 -.310E-24 -.116E-24   0.340E-13 -.473E-13 0.171E-13
   0.234E-14 0.227E-14 -.645E-13   0.306E-13 0.655E-14 -.488E-14   0.267E-24 -.709E-24 0.422E-24   0.637E-15 -.638E-13 0.109E-13
   0.312E-14 0.299E-14 0.334E-13   0.698E-13 0.221E-13 0.402E-14   0.538E-25 0.184E-24 0.521E-25   -.404E-13 -.814E-13 0.660E-13
   -.181E-14 0.161E-13 0.124E-13   0.121E-12 0.173E-13 0.799E-14   -.586E-25 0.323E-26 -.378E-24   0.661E-13 -.216E-13 -.349E-13
   -.953E-15 -.151E-13 0.291E-13   0.110E-12 -.223E-14 -.107E-13   -.210E-24 -.118E-24 0.344E-24   0.534E-13 0.137E-13 -.117E-13
   0.599E-15 -.467E-13 0.735E-14   0.471E-13 0.289E-14 -.688E-14   -.102E-23 0.262E-24 0.153E-24   0.286E-13 0.158E-14 -.359E-13
   0.120E-14 0.506E-13 -.636E-13   0.355E-13 0.152E-13 -.444E-14   -.325E-24 0.388E-24 -.469E-25   0.343E-13 -.853E-14 0.156E-13
[...]
   -.915E-14 0.286E-12 -.389E-12   -.269E-13 0.888E-14 -.377E-14   -.100E-23 -.586E-24 -.218E-24   -.470E-14 -.164E-12 0.942E-14
   -.112E-13 -.185E-12 0.147E-12   -.149E-12 -.266E-13 -.888E-14   0.550E-24 -.727E-24 -.178E-24   0.366E-13 -.145E-12 0.118E-13
   -.118E-13 0.105E-12 0.158E-12   0.214E-13 0.144E-13 0.585E-14   0.122E-24 0.420E-24 0.242E-24   0.246E-13 -.149E-12 -.484E-13
   -.121E-13 -.275E-12 -.179E-12   -.361E-13 0.122E-13 -.118E-13   -.250E-24 0.481E-24 0.333E-24   -.103E-13 -.556E-13 0.113E-13
   -.918E-14 -.384E-12 0.676E-13   -.466E-13 -.455E-14 -.135E-13   -.354E-26 0.467E-24 -.145E-24   0.261E-13 -.753E-13 -.830E-13
   -.104E-13 0.201E-12 -.204E-12   -.167E-12 0.113E-13 0.332E-14   -.282E-24 0.368E-24 0.372E-25   0.247E-13 -.130E-12 0.388E-14
   -.112E-13 -.256E-12 -.511E-13   0.473E-13 0.189E-13 0.577E-14   -.402E-25 -.242E-24 0.775E-25   -.117E-13 0.527E-14 -.748E-13
   -.120E-13 -.105E-12 0.165E-12   -.178E-13 0.441E-15 -.124E-13   -.226E-25 0.254E-24 0.420E-25   -.120E-13 0.644E-13 -.250E-13
   -.896E-14 -.484E-12 0.183E-13   -.156E-14 0.000E+00 -.142E-13   0.464E-24 -.536E-24 -.114E-24   0.664E-13 0.160E-13 -.395E-14
   -.104E-13 -.980E-13 0.232E-12   -.100E-12 0.139E-13 -.355E-14   -.190E-24 0.368E-24 0.544E-24   0.350E-13 0.159E-13 -.537E-14
   -.110E-13 0.151E-12 0.371E-12   0.675E-13 0.249E-13 0.533E-14   -.774E-25 -.647E-24 0.646E-26   0.289E-13 -.121E-13 0.465E-13
   -.134E-13 0.439E-12 0.590E-12   0.711E-14 0.107E-13 -.178E-14   0.535E-24 -.606E-25 -.258E-24   0.514E-13 -.648E-13 -.158E-13
   -.870E-14 0.326E-12 0.490E-13   -.107E-13 -.355E-14 -.355E-14   0.490E-25 -.120E-23 -.727E-24   0.317E-13 -.707E-13 0.773E-13
   -.914E-14 -.341E-13 0.193E-12   -.135E-12 0.213E-13 0.355E-14   0.195E-24 0.307E-25 -.246E-24   0.473E-13 0.258E-14 -.104E-13
   -.158E-11 -.103E-11 -.830E-11   -.241E-13 0.200E-12 -.228E-12   0.149E-23 0.126E-22 -.460E-24   -.167E-13 -.351E-14 -.133E-14

 POSITION                                       TOTAL-FORCE (eV/Angst)
      0.00000      0.00000      0.00000        -0.000000     -0.000000     -0.000000
      0.00000      2.02475      2.02475         0.000000      0.000000      0.000000
      2.02475      0.00000      2.02475        -0.000000      0.000000     -0.000000
      2.02475      2.02475      0.00000        -0.000000     -0.000000     -0.000000
      0.00000      0.00000      4.04950        -0.000000     -0.000000      0.000000
      0.00000      2.02475      6.07425         0.000000     -0.000000      0.000000
      2.02475      0.00000      6.07425         0.000000     -0.000000      0.000000
      2.02475      2.02475      4.04950        -0.000000      0.000000      0.000000
      0.00000      0.00000      8.09900         0.000000      0.000000      0.000000
      0.00000      2.02475     10.12375        -0.000000     -0.000000     -0.000000
      2.02475      0.00000     10.12375        -0.000000      0.000000     -0.000000
      2.02475      2.02475      8.09900         0.000000     -0.000000      0.000000
      0.00000      0.00000     12.14850         0.000000     -0.000000      0.000000
      0.00000      2.02475     14.17325        -0.000000     -0.000000     -0.000000
      2.02475      0.00000     14.17325         0.000000     -0.000000      0.000000
      2.02475      2.02475     12.14850         0.000000     -0.000000      0.000000
      0.00000      4.04950      0.00000        -0.000000      0.000000      0.000000
      0.00000      6.07425      2.02475         0.000000      0.000000      0.000000
      2.02475      4.04950      2.02475        -0.000000      0.000000      0.000000
      2.02475      6.07425      0.00000        -0.000000      0.000000      0.000000
      0.00000      4.04950      4.04950         0.000000     -0.000000      0.000000
      0.00000      6.07425      6.07425         0.000000     -0.000000      0.000000
      2.02475      4.04950      6.07425         0.000000      0.000000      0.000000
      2.02475      6.07425      4.04950        -0.000000      0.000000      0.000000
      0.00000      4.04950      8.09900         0.000000     -0.000000      0.000000
      0.00000      6.07425     10.12375         0.000000     -0.000000     -0.000000
      2.02475      4.04950     10.12375         0.000000     -0.000000     -0.000000
      2.02475      6.07425      8.09900         0.000000     -0.000000     -0.000000
      0.00000      4.04950     12.14850        -0.000000     -0.000000     -0.000000
      0.00000      6.07425     14.17325        -0.000000     -0.000000      0.000000
      2.02475      4.04950     14.17325         0.000000     -0.000000     -0.000000
      2.02475      6.07425     12.14850         0.000000      0.000000     -0.000000
      0.00000      8.09900      0.00000         0.000000      0.000000      0.000000
      0.00000     10.12375      2.02475        -0.000000      0.000000     -0.000000
      2.02475      8.09900      2.02475        -0.000000      0.000000      0.000000
      2.02475     10.12375      0.00000        -0.000000      0.000000     -0.000000
      0.00000      8.09900      4.04950        -0.000000      0.000000     -0.000000
      0.00000     10.12375      6.07425         0.000000     -0.000000     -0.000000
      2.02475      8.09900      6.07425        -0.000000      0.000000     -0.000000
      2.02475     10.12375      4.04950        -0.000000      0.000000     -0.000000
      0.00000      8.09900      8.09900         0.000000     -0.000000     -0.000000
      0.00000     10.12375     10.12375         0.000000     -0.000000      0.000000
      2.02475      8.09900     10.12375         0.000000     -0.000000     -0.000000
      2.02475     10.12375      8.09900         0.000000     -0.000000     -0.000000
      0.00000      8.09900     12.14850         0.000000      0.000000      0.000000
      0.00000     10.12375     14.17325        -0.000000      0.000000      0.000000
      2.02475      8.09900     14.17325        -0.000000      0.000000      0.000000
      2.02475     10.12375     12.14850         0.000000      0.000000      0.000000
      0.00000     12.14850      0.00000        -0.000000     -0.000000      0.000000
      0.00000     14.17325      2.02475        -0.000000     -0.000000      0.000000
      2.02475     12.14850      2.02475         0.000000     -0.000000      0.000000
      2.02475     14.17325      0.00000        -0.000000      0.000000      0.000000
      0.00000     12.14850      4.04950        -0.000000     -0.000000     -0.000000
      0.00000     14.17325      6.07425         0.000000     -0.000000      0.000000
      2.02475     12.14850      6.07425        -0.000000     -0.000000      0.000000
      2.02475     14.17325      4.04950        -0.000000     -0.000000     -0.000000
      0.00000     12.14850      8.09900         0.000000     -0.000000      0.000000
      0.00000     14.17325     10.12375         0.000000      0.000000     -0.000000
      2.02475     12.14850     10.12375         0.000000     -0.000000      0.000000
      2.02475     14.17325      8.09900         0.000000      0.000000     -0.000000
[...]
     12.14850     14.17325      2.02475         0.000000      0.000000      0.000000
     14.17325     12.14850      2.02475         0.000000     -0.000000     -0.000000
     14.17325     14.17325      0.00000        -0.000000     -0.000000     -0.000000
     12.14850     12.14850      4.04950         0.000000      0.000000      0.000000
     12.14850     14.17325      6.07425         0.000000      0.000000     -0.000000
     14.17325     12.14850      6.07425         0.000000      0.000000      0.000000
     14.17325     14.17325      4.04950        -0.000000      0.000000     -0.000000
     12.14850     12.14850      8.09900        -0.000000      0.000000     -0.000000
     12.14850     14.17325     10.12375        -0.000000     -0.000000     -0.000000
     14.17325     12.14850     10.12375         0.000000      0.000000     -0.000000
     14.17325     14.17325      8.09900         0.000000      0.000000     -0.000000
     12.14850     12.14850     12.14850        -0.000000     -0.000000     -0.000000
     12.14850     14.17325     14.17325        -0.000000     -0.000000     -0.000000
     14.17325     12.14850     14.17325        -0.000000     -0.000000      0.000000
     14.17325     14.17325     12.14850        -0.000000     -0.000000      0.000000
    total drift:                               -0.000000     -0.000000     -0.000000

  FREE ENERGIE OF THE ION-ELECTRON SYSTEM (eV)
  free  energy   TOTEN  =     -1046.98835838 eV

  energy  without entropy=    -1046.78485254  energy(sigma->0) =    -1046.88660546

 stress matrix after NEB project (eV)
   -100.55974      0.00000      0.00000
     -0.00000   -100.55974      0.00000
      0.00000      0.00000   -100.55974
  FORCES: max atom, RMS     0.000000    0.000000
  FORCE total and by dimension    0.000000    0.000000
  Stress total and by dimension  174.174585  100.559743