 vasp.6.2.1 16May21 (build May 12 2022 08:28:04) complex
 executed on             LinuxPGI date 2022.07.13  02:13:03

 INCAR:
   SYSTEM = NiAl
   ISTART = 0
   EDIFF = 5E-6
   NELMIN = 6
   ISIF = 0
   NSW = 40
   IBRION = 2
   POTIM = 0.2
   IVDW = 12
   LWAVE = .FALSE.
   LCHARG = .FALSE.
   LREAL = Auto
   NCORE = 1
   LPLANE = .TRUE.
   ENCUT = 360.00 eV
   ISMEAR = 0
   SIGMA = 0.05

 POTCAR:    PAW Ni_GW 31Mar2010
 POTCAR:    PAW O_GW 19Mar2012
 POTCAR:    PAW Ni_GW 31Mar2010
   VRHFIN =Ni:

   TITEL  = PAW Ni_GW 31Mar2010
   POMASS =   58.690; ZVAL   =   10.000    mass and valenz
   ENMAX  =  357.323; ENMIN  =  267.992 eV

 POTCAR:    PAW O_GW 19Mar2012
   VRHFIN =O: s2p4

   TITEL  = PAW O_GW 19Mar2012
   POMASS =   16.000; ZVAL   =    6.000    mass and valenz
   ENMAX  =  434.431; ENMIN  =  325.824 eV

 Optimization of the real space projectors (new method)

 maximal supplied QI-value         = 16.25
 optimisation between [QCUT,QGAM] = [  9.59, 19.34] = [ 25.75,104.73] Ry
 Optimized for a Real-space Cutoff    1.46 Angstroem

   l    n(q)    QCUT    max X(q) W(low)/X(q) W(high)/X(q)  e(spline)
   2      7     9.588    94.285    0.33E-03    0.50E-03    0.16E-06
   2      7     9.588    92.549    0.33E-03    0.50E-03    0.16E-06
   0      8     9.588    17.118    0.28E-04    0.17E-03    0.57E-07
   0      8     9.588     8.062    0.24E-04    0.17E-03    0.61E-07
   1      8     9.588     4.910    0.48E-03    0.22E-03    0.79E-07
   1      8     9.588     3.344    0.32E-03    0.14E-03    0.56E-07
   3      7     9.588     5.513    0.55E-04    0.16E-03    0.12E-06
 Optimization of the real space projectors (new method)

 maximal supplied QI-value         = 23.62
 optimisation between [QCUT,QGAM] = [  9.68, 19.37] = [ 26.27,105.06] Ry
 Optimized for a Real-space Cutoff    2.14 Angstroem

   l    n(q)    QCUT    max X(q) W(low)/X(q) W(high)/X(q)  e(spline)
   0     13     9.685   116.464    0.15E-03    0.15E-03    0.47E-05
   0     13     9.685   116.329    0.15E-03    0.15E-03    0.46E-05
   0     13     9.685     0.942    0.20E-04    0.50E-04    0.17E-05
   1     12     9.685    29.046    0.36E-03    0.11E-02    0.25E-04
   1     12     9.685    24.247    0.38E-03    0.11E-02    0.26E-04
   1     12     9.685     2.381    0.13E-03    0.38E-03    0.78E-05
   2     12     9.685     2.237    0.60E-05    0.28E-04    0.14E-05
   2     12     9.685     1.850    0.17E-04    0.70E-04    0.25E-05
  PAW Ni_GW 31Mar2010                   :
  PAW O_GW 19Mar2012                    :

 POSCAR: New structure
  positions in direct lattice
 exchange correlation table for  LEXCH =        8
   RHO(1)=    0.500       N(1)  =     2000
   RHO(2)=  100.500       N(2)  =     4000

 VTST: version 4.1, (05/19/21)

 CHAIN: initializing optimizer

 OPT: Using VASP Conjugate-Gradient optimizer
 CHAIN: Read ICHAIN             0

 POSCAR: New structure
  positions in direct lattice

 ion  position               nearest neighbor table
   1  0.000  0.000  0.000- 146 1.49 226 1.49 150 1.49 230 1.49  21 2.11   5 2.11 101 2.11 106 2.11
                            46 2.11 126 2.11   6 2.11   2 2.11  26 2.11 130 2.11 246 2.11 250 2.11
   2  0.000  0.000  0.200- 146 1.49 226 1.49 147 1.49 227 1.49  22 2.11 102 2.11 107 2.11  47 2.11
                           126 2.11   7 2.11  27 2.11   1 2.11   3 2.11 127 2.11 246 2.11 247 2.11
   3  0.000  0.000  0.400- 147 1.49 148 1.49 227 1.49 228 1.49  23 2.11 103 2.11 108 2.11  48 2.11
                           127 2.11 128 2.11   8 2.11  28 2.11   2 2.11   4 2.11 247 2.11 248 2.11
   4  0.000  0.000  0.600- 149 1.49 229 1.49 228 1.49 148 1.49 129 2.11  24 2.11   5 2.11 104 2.11
                           109 2.11  49 2.11   9 2.11  29 2.11 128 2.11 249 2.11   3 2.11 248 2.11
   5  0.000  0.000  0.800- 150 1.49 230 1.49 229 1.49 149 1.49 130 2.11  25 2.11   4 2.11 105 2.11
                             1 2.11 110 2.11  50 2.11  10 2.11  30 2.11 129 2.11 250 2.11 249 2.11
   6  0.000  0.200  0.000- 126 1.49 231 1.49 130 1.49 235 1.49  10 2.11 106 2.11 111 2.11   1 2.11
                            11 2.11  26 2.11   7 2.11  31 2.11 131 2.11 135 2.11 226 2.11 230 2.11
   7  0.000  0.200  0.200- 126 1.49 127 1.49 231 1.49 232 1.49 107 2.11 112 2.11   2 2.11  12 2.11
                            27 2.11   6 2.11   8 2.11  32 2.11 131 2.11 132 2.11 226 2.11 227 2.11
   8  0.000  0.200  0.400- 127 1.49 128 1.49 232 1.49 233 1.49 108 2.11 113 2.11   3 2.11  13 2.11
                            28 2.11   7 2.11  33 2.11 132 2.11 133 2.11 227 2.11 228 2.11   9 2.11
   9  0.000  0.200  0.600- 129 1.49 234 1.49 128 1.49 233 1.49  10 2.11 109 2.11 134 2.11 114 2.11
                           229 2.11  29 2.11   4 2.11  14 2.11  34 2.11   8 2.11 133 2.11 228 2.11
  10  0.000  0.200  0.800- 130 1.49 235 1.49 129 1.49 234 1.49   9 2.11   6 2.11 110 2.11 135 2.11
                           115 2.11 230 2.11  30 2.11   5 2.11  15 2.11  35 2.11 134 2.11 229 2.11
  11  0.000  0.400  0.000- 131 1.49 236 1.49 135 1.49 240 1.49  15 2.11 111 2.11 136 2.11   6 2.11
                            31 2.11 116 2.11  36 2.11  12 2.11 140 2.11 231 2.11  16 2.11 235 2.11
  12  0.000  0.400  0.200- 131 1.49 132 1.49 236 1.49 237 1.49 112 2.11 136 2.11 137 2.11  32 2.11
                             7 2.11 117 2.11  37 2.11  13 2.11  11 2.11 231 2.11  17 2.11 232 2.11
  13  0.000  0.400  0.400- 132 1.49 133 1.49 237 1.49 238 1.49 113 2.11 137 2.11 138 2.11  33 2.11
                             8 2.11 118 2.11  12 2.11  38 2.11 232 2.11 233 2.11  18 2.11  14 2.11
  14  0.000  0.400  0.600- 134 1.49 239 1.49 133 1.49 238 1.49 139 2.11  15 2.11 114 2.11 234 2.11
                            34 2.11   9 2.11 119 2.11  39 2.11 138 2.11  19 2.11  13 2.11 233 2.11
  15  0.000  0.400  0.800- 135 1.49 240 1.49 134 1.49 239 1.49 140 2.11  14 2.11 115 2.11  11 2.11
                           235 2.11  35 2.11  10 2.11 120 2.11  40 2.11 139 2.11  20 2.11 234 2.11
  16  0.000  0.600  0.000- 241 1.49 136 1.49 245 1.49 140 1.49 141 2.11 145 2.11  21 2.11 121 2.11
                           116 2.11  20 2.11  17 2.11  41 2.11  36 2.11  11 2.11 236 2.11 240 2.11
  17  0.000  0.600  0.200- 241 1.49 242 1.49 136 1.49 137 1.49 141 2.11 142 2.11  22 2.11 122 2.11
                           117 2.11  42 2.11  18 2.11  16 2.11  37 2.11  12 2.11 236 2.11 237 2.11
  18  0.000  0.600  0.400- 242 1.49 243 1.49 137 1.49 138 1.49 142 2.11 143 2.11  23 2.11 123 2.11
                           118 2.11  17 2.11  43 2.11  38 2.11  13 2.11  19 2.11 237 2.11 238 2.11
  19  0.000  0.600  0.600- 244 1.49 139 1.49 243 1.49 138 1.49 144 2.11 143 2.11  24 2.11 124 2.11
                            20 2.11 119 2.11  44 2.11  39 2.11  14 2.11 239 2.11  18 2.11 238 2.11
  20  0.000  0.600  0.800- 245 1.49 140 1.49 244 1.49 139 1.49 145 2.11 144 2.11  25 2.11 125 2.11
                            19 2.11 120 2.11  16 2.11  45 2.11  40 2.11  15 2.11 240 2.11 239 2.11
  21  0.000  0.800  0.000- 246 1.49 141 1.49 250 1.49 145 1.49 146 2.11 150 2.11  16 2.11   1 2.11
                           101 2.11  25 2.11 121 2.11  41 2.11  22 2.11  46 2.11 241 2.11 245 2.11
  22  0.000  0.800  0.200- 246 1.49 247 1.49 141 1.49 142 1.49 146 2.11 147 2.11  17 2.11   2 2.11
                           102 2.11 122 2.11  42 2.11  47 2.11  23 2.11  21 2.11 241 2.11 242 2.11
  23  0.000  0.800  0.400- 247 1.49 248 1.49 142 1.49 143 1.49 147 2.11 148 2.11  18 2.11   3 2.11
                           103 2.11 123 2.11  43 2.11  22 2.11  48 2.11  24 2.11 242 2.11 243 2.11
  24  0.000  0.800  0.600- 249 1.49 144 1.49 248 1.49 143 1.49 149 2.11 148 2.11  19 2.11   4 2.11
                           104 2.11  25 2.11 124 2.11  44 2.11  49 2.11 244 2.11  23 2.11 243 2.11
  25  0.000  0.800  0.800- 250 1.49 145 1.49 249 1.49 144 1.49 150 2.11 149 2.11  20 2.11   5 2.11
                           105 2.11  24 2.11  21 2.11 125 2.11  45 2.11  50 2.11 245 2.11 244 2.11
  26  0.200  0.000  0.000- 126 1.49 171 1.49 130 1.49 175 1.49  46 2.11  30 2.11  71 2.11   6 2.11
                            31 2.11  51 2.11  27 2.11   1 2.11 151 2.11 155 2.11 146 2.11 150 2.11
  27  0.200  0.000  0.200- 126 1.49 127 1.49 171 1.49 172 1.49  47 2.11  72 2.11   7 2.11  32 2.11
                             2 2.11  26 2.11  52 2.11  28 2.11 151 2.11 152 2.11 146 2.11 147 2.11
  28  0.200  0.000  0.400- 127 1.49 128 1.49 172 1.49 173 1.49  48 2.11  73 2.11   8 2.11  33 2.11
                            53 2.11   3 2.11  27 2.11 152 2.11 153 2.11 147 2.11 148 2.11  29 2.11
  29  0.200  0.000  0.600- 129 1.49 174 1.49 128 1.49 173 1.49  49 2.11  30 2.11 154 2.11  74 2.11
                           149 2.11   9 2.11  34 2.11  54 2.11   4 2.11  28 2.11 153 2.11 148 2.11
  30  0.200  0.000  0.800- 130 1.49 175 1.49 129 1.49 174 1.49  50 2.11  29 2.11  26 2.11 155 2.11
                            75 2.11 150 2.11  10 2.11  35 2.11  55 2.11   5 2.11 154 2.11 149 2.11
  31  0.200  0.200  0.000- 131 1.49 151 1.49 135 1.49 155 1.49  35 2.11  26 2.11  11 2.11  36 2.11
                            51 2.11   6 2.11  56 2.11  32 2.11 126 2.11 156 2.11 130 2.11 160 2.11
  32  0.200  0.200  0.200- 131 1.49 151 1.49 132 1.49 152 1.49  12 2.11  27 2.11  37 2.11  52 2.11
                            33 2.11   7 2.11  31 2.11  57 2.11 126 2.11 127 2.11 156 2.11 157 2.11
  33  0.200  0.200  0.400- 132 1.49 133 1.49 152 1.49 153 1.49 127 2.11 128 2.11  38 2.11  53 2.11
                            13 2.11  28 2.11   8 2.11  32 2.11  58 2.11 157 2.11 158 2.11  34 2.11
  34  0.200  0.200  0.600- 134 1.49 154 1.49 153 1.49 133 1.49 129 2.11  35 2.11 159 2.11  39 2.11
                            54 2.11  29 2.11  14 2.11   9 2.11  59 2.11 128 2.11  33 2.11 158 2.11
  35  0.200  0.200  0.800- 135 1.49 155 1.49 154 1.49 134 1.49 130 2.11  34 2.11  31 2.11 160 2.11
                            40 2.11  55 2.11  15 2.11  30 2.11  10 2.11  60 2.11 129 2.11 159 2.11
  36  0.200  0.400  0.000- 136 1.49 156 1.49 140 1.49 160 1.49  40 2.11 131 2.11 161 2.11  31 2.11
                            56 2.11  11 2.11  37 2.11  61 2.11 135 2.11  16 2.11 165 2.11  41 2.11
  37  0.200  0.400  0.200- 136 1.49 156 1.49 137 1.49 157 1.49 131 2.11 132 2.11  32 2.11  57 2.11
                            12 2.11  62 2.11  36 2.11  38 2.11 161 2.11 162 2.11  17 2.11  42 2.11
  38  0.200  0.400  0.400- 137 1.49 138 1.49 157 1.49 158 1.49 132 2.11 133 2.11 162 2.11 163 2.11
                            33 2.11  58 2.11  63 2.11  37 2.11  13 2.11  18 2.11  43 2.11  39 2.11
  39  0.200  0.400  0.600- 139 1.49 159 1.49 138 1.49 158 1.49 134 2.11 164 2.11  40 2.11  34 2.11
                            59 2.11  14 2.11  64 2.11 133 2.11  19 2.11 163 2.11  44 2.11  38 2.11
  40  0.200  0.400  0.800- 140 1.49 160 1.49 139 1.49 159 1.49 135 2.11 165 2.11  39 2.11  36 2.11
                            35 2.11  60 2.11  15 2.11  65 2.11 134 2.11  20 2.11 164 2.11  45 2.11
  41  0.200  0.600  0.000- 141 1.49 145 1.49 161 1.49 165 1.49 166 2.11  46 2.11  45 2.11 170 2.11
                            21 2.11  16 2.11  42 2.11  66 2.11  61 2.11  36 2.11 136 2.11 140 2.11
  42  0.200  0.600  0.200- 141 1.49 142 1.49 161 1.49 162 1.49 166 2.11 167 2.11  47 2.11  22 2.11
[...]
   -.993E-04 -.574E-04 -.115E-03   0.274E-03 0.158E-03 0.213E-03   -.655E-21 0.265E-22 -.177E-20   -.621E-05 -.359E-05 -.157E-04
   -.993E-04 -.574E-04 -.479E-04   0.274E-03 0.158E-03 0.153E-04   -.946E-21 0.238E-21 -.160E-20   -.621E-05 -.359E-05 0.449E-05
   -.993E-04 -.574E-04 0.245E-05   0.274E-03 0.158E-03 -.735E-04   -.232E-21 0.271E-21 0.189E-20   -.621E-05 -.359E-05 0.182E-04
   -.993E-04 -.574E-04 0.325E-03   0.274E-03 0.158E-03 -.607E-03   -.132E-20 -.185E-21 0.632E-20   -.621E-05 -.359E-05 0.709E-05
   -.993E-04 -.574E-04 0.983E-04   0.274E-03 0.158E-03 -.145E-03   -.351E-21 -.112E-21 -.265E-21   -.621E-05 -.359E-05 -.140E-04
   -.997E-04 -.351E-05 -.115E-03   0.217E-03 -.854E-04 0.213E-03   -.463E-22 -.397E-22 -.338E-20   -.622E-05 0.571E-05 -.157E-04
   -.997E-04 -.351E-05 -.479E-04   0.217E-03 -.854E-04 0.153E-04   -.410E-21 -.265E-21 -.609E-21   -.622E-05 0.571E-05 0.449E-05
   -.997E-04 -.351E-05 0.245E-05   0.217E-03 -.854E-04 -.735E-04   -.132E-22 -.119E-21 0.189E-20   -.622E-05 0.571E-05 0.182E-04
   -.997E-04 -.351E-05 0.325E-03   0.217E-03 -.854E-04 -.607E-03   -.397E-21 -.159E-21 0.314E-20   -.622E-05 0.571E-05 0.709E-05
   -.997E-04 -.351E-05 0.983E-04   0.217E-03 -.854E-04 -.145E-03   -.840E-21 -.529E-22 -.151E-20   -.622E-05 0.571E-05 -.140E-04
   -.112E-03 0.321E-04 -.115E-03   0.234E-03 -.151E-03 0.213E-03   -.122E-20 0.162E-21 -.418E-20   -.622E-05 0.120E-04 -.157E-04
   -.112E-03 0.321E-04 -.479E-04   0.234E-03 -.151E-03 0.153E-04   -.710E-21 -.331E-22 -.457E-21   -.622E-05 0.120E-04 0.449E-05
   -.112E-03 0.321E-04 0.245E-05   0.234E-03 -.151E-03 -.735E-04   -.754E-21 -.400E-21 0.269E-20   -.622E-05 0.120E-04 0.182E-04
   -.112E-03 0.321E-04 0.325E-03   0.234E-03 -.151E-03 -.607E-03   -.637E-21 0.893E-22 0.336E-20   -.622E-05 0.120E-04 0.709E-05
   -.112E-03 0.321E-04 0.983E-04   0.234E-03 -.151E-03 -.145E-03   -.232E-21 -.596E-22 -.266E-20   -.622E-05 0.120E-04 -.140E-04
   -.168E-03 0.228E-03 -.115E-03   0.324E-03 -.434E-03 0.213E-03   -.136E-20 0.278E-21 -.347E-20   -.622E-05 0.677E-05 -.157E-04
   -.168E-03 0.228E-03 -.479E-04   0.324E-03 -.434E-03 0.153E-04   -.513E-21 -.503E-21 -.148E-20   -.622E-05 0.677E-05 0.449E-05
   -.168E-03 0.228E-03 0.245E-05   0.324E-03 -.434E-03 -.735E-04   -.118E-20 -.126E-21 0.328E-20   -.622E-05 0.677E-05 0.182E-04
   -.168E-03 0.228E-03 0.325E-03   0.324E-03 -.434E-03 -.607E-03   -.897E-21 0.529E-22 0.442E-20   -.622E-05 0.677E-05 0.709E-05
   -.168E-03 0.228E-03 0.983E-04   0.324E-03 -.434E-03 -.145E-03   -.536E-21 0.430E-21 0.176E-20   -.622E-05 0.677E-05 -.140E-04
   -.138E-03 0.755E-04 -.115E-03   0.334E-03 -.473E-04 0.213E-03   -.172E-21 -.159E-21 -.264E-20   -.621E-05 -.291E-05 -.157E-04
   -.138E-03 0.755E-04 -.479E-04   0.334E-03 -.473E-04 0.153E-04   -.212E-21 -.662E-22 -.375E-20   -.621E-05 -.291E-05 0.449E-05
   -.138E-03 0.755E-04 0.245E-05   0.334E-03 -.473E-04 -.735E-04   -.655E-21 0.199E-21 0.622E-21   -.621E-05 -.291E-05 0.182E-04
   -.138E-03 0.755E-04 0.325E-03   0.334E-03 -.473E-04 -.607E-03   -.384E-21 0.318E-21 0.422E-20   -.621E-05 -.291E-05 0.709E-05
   -.138E-03 0.755E-04 0.983E-04   0.334E-03 -.473E-04 -.145E-03   -.128E-20 0.159E-21 -.450E-21   -.621E-05 -.291E-05 -.140E-04
   -.529E-04 -.846E-04 -.115E-03   0.343E-04 0.230E-03 0.213E-03   0.476E-21 -.324E-21 0.642E-21   0.183E-05 -.824E-05 -.157E-04
   -.529E-04 -.846E-04 -.479E-04   0.343E-04 0.230E-03 0.153E-04   -.834E-21 -.529E-22 -.152E-20   0.183E-05 -.824E-05 0.449E-05
   -.529E-04 -.846E-04 0.245E-05   0.343E-04 0.230E-03 -.735E-04   -.933E-21 -.662E-23 0.322E-20   0.183E-05 -.824E-05 0.182E-04
   -.529E-04 -.846E-04 0.325E-03   0.343E-04 0.230E-03 -.607E-03   -.118E-20 -.112E-21 0.623E-20   0.183E-05 -.824E-05 0.709E-05
   -.529E-04 -.846E-04 0.983E-04   0.343E-04 0.230E-03 -.145E-03   -.225E-21 -.265E-22 0.352E-20   0.183E-05 -.824E-05 -.140E-04
   -.532E-04 -.307E-04 -.115E-03   -.235E-04 -.136E-04 0.213E-03   0.503E-21 -.397E-22 -.115E-20   0.183E-05 0.106E-05 -.157E-04
   -.532E-04 -.307E-04 -.479E-04   -.235E-04 -.136E-04 0.153E-04   -.384E-21 -.794E-22 -.332E-20   0.183E-05 0.106E-05 0.449E-05
   -.532E-04 -.307E-04 0.245E-05   -.235E-04 -.136E-04 -.735E-04   -.728E-21 -.794E-21 0.302E-20   0.183E-05 0.106E-05 0.182E-04
   -.532E-04 -.307E-04 0.325E-03   -.235E-04 -.136E-04 -.607E-03   -.926E-22 -.794E-22 0.443E-20   0.183E-05 0.106E-05 0.709E-05
   -.532E-04 -.307E-04 0.983E-04   -.235E-04 -.136E-04 -.145E-03   0.834E-21 -.278E-21 0.926E-21   0.183E-05 0.106E-05 -.140E-04
   -.658E-04 0.489E-05 -.115E-03   -.636E-05 -.789E-04 0.213E-03   -.313E-21 0.112E-21 -.177E-20   0.183E-05 0.734E-05 -.157E-04
   -.658E-04 0.489E-05 -.479E-04   -.636E-05 -.789E-04 0.153E-04   -.127E-21 -.232E-22 -.238E-20   0.183E-05 0.734E-05 0.449E-05
   -.658E-04 0.489E-05 0.245E-05   -.636E-05 -.789E-04 -.735E-04   -.351E-21 0.728E-22 0.283E-20   0.183E-05 0.734E-05 0.182E-04
   -.658E-04 0.489E-05 0.325E-03   -.636E-05 -.789E-04 -.607E-03   -.849E-21 -.195E-21 0.260E-20   0.183E-05 0.734E-05 0.709E-05
   -.658E-04 0.489E-05 0.983E-04   -.636E-05 -.789E-04 -.145E-03   -.347E-22 -.179E-21 0.124E-20   0.183E-05 0.734E-05 -.140E-04
   -.121E-03 0.200E-03 -.115E-03   0.841E-04 -.362E-03 0.213E-03   -.285E-21 -.245E-21 -.101E-20   0.183E-05 0.212E-05 -.157E-04
   -.121E-03 0.200E-03 -.479E-04   0.841E-04 -.362E-03 0.153E-04   0.467E-21 -.159E-21 -.136E-20   0.183E-05 0.212E-05 0.449E-05
   -.121E-03 0.200E-03 0.245E-05   0.841E-04 -.362E-03 -.735E-04   -.377E-21 0.728E-22 0.430E-20   0.183E-05 0.212E-05 0.182E-04
   -.121E-03 0.200E-03 0.325E-03   0.841E-04 -.362E-03 -.607E-03   -.526E-21 -.794E-22 0.473E-20   0.183E-05 0.212E-05 0.709E-05
   -.121E-03 0.200E-03 0.983E-04   0.841E-04 -.362E-03 -.145E-03   0.195E-21 -.119E-21 0.132E-21   0.183E-05 0.212E-05 -.140E-04
   -.919E-04 0.483E-04 -.115E-03   0.941E-04 0.245E-04 0.213E-03   0.331E-22 -.146E-21 -.172E-21   0.183E-05 -.756E-05 -.157E-04
   -.919E-04 0.483E-04 -.479E-04   0.941E-04 0.245E-04 0.153E-04   0.622E-21 -.159E-21 -.312E-20   0.183E-05 -.756E-05 0.449E-05
   -.919E-04 0.483E-04 0.245E-05   0.941E-04 0.245E-04 -.735E-04   -.127E-20 -.265E-22 0.249E-20   0.183E-05 -.756E-05 0.182E-04
   -.919E-04 0.483E-04 0.325E-03   0.941E-04 0.245E-04 -.607E-03   -.437E-21 0.397E-22 0.470E-20   0.183E-05 -.756E-05 0.709E-05
   -.919E-04 0.483E-04 0.983E-04   0.941E-04 0.245E-04 -.145E-03   -.721E-21 -.662E-22 0.373E-20   0.183E-05 -.756E-05 -.140E-04
   -.284E-04 -.113E-03 -.115E-03   -.136E-04 0.278E-03 0.213E-03   0.430E-21 0.384E-21 -.184E-20   0.727E-05 -.114E-04 -.157E-04
   -.284E-04 -.113E-03 -.479E-04   -.136E-04 0.278E-03 0.153E-04   -.205E-21 0.265E-22 -.396E-20   0.727E-05 -.114E-04 0.449E-05
   -.284E-04 -.113E-03 0.245E-05   -.136E-04 0.278E-03 -.735E-04   0.232E-21 0.397E-22 -.127E-20   0.727E-05 -.114E-04 0.182E-04
   -.284E-04 -.113E-03 0.325E-03   -.136E-04 0.278E-03 -.607E-03   0.107E-20 0.278E-21 0.938E-21   0.727E-05 -.114E-04 0.709E-05
   -.284E-04 -.113E-03 0.983E-04   -.136E-04 0.278E-03 -.145E-03   -.265E-21 0.212E-21 0.993E-21   0.727E-05 -.114E-04 -.140E-04
   -.287E-04 -.594E-04 -.115E-03   -.715E-04 0.339E-04 0.213E-03   0.225E-21 -.132E-21 -.105E-20   0.727E-05 -.209E-05 -.157E-04
   -.287E-04 -.594E-04 -.479E-04   -.715E-04 0.339E-04 0.153E-04   -.490E-21 0.662E-22 -.476E-20   0.727E-05 -.209E-05 0.449E-05
   -.287E-04 -.594E-04 0.245E-05   -.715E-04 0.339E-04 -.735E-04   0.821E-21 0.159E-21 0.212E-21   0.727E-05 -.209E-05 0.182E-04
   -.287E-04 -.594E-04 0.325E-03   -.715E-04 0.339E-04 -.607E-03   0.940E-21 -.212E-21 0.129E-20   0.727E-05 -.209E-05 0.709E-05
   -.287E-04 -.594E-04 0.983E-04   -.715E-04 0.339E-04 -.145E-03   -.794E-22 -.450E-21 0.662E-21   0.727E-05 -.209E-05 -.140E-04
[...]
   0.354E-03 0.127E-03 -.150E-03   0.111E-03 -.282E-03 -.146E-03   -.685E-21 0.152E-20 0.993E-23   -.448E-05 0.694E-05 0.850E-05
   0.354E-03 0.127E-03 -.197E-04   0.111E-03 -.282E-03 0.827E-05   -.105E-20 -.212E-20 0.248E-23   -.448E-05 0.694E-05 0.945E-05
   0.354E-03 0.127E-03 0.892E-04   0.111E-03 -.282E-03 0.199E-03   0.639E-21 0.543E-21 0.217E-21   -.448E-05 0.694E-05 -.255E-05
   0.354E-03 0.127E-03 0.154E-03   0.111E-03 -.282E-03 0.475E-03   0.173E-20 -.410E-21 0.407E-21   -.448E-05 0.694E-05 -.112E-04
   0.482E-03 0.270E-03 -.669E-04   0.585E-04 -.196E-03 0.609E-04   -.543E-20 -.635E-21 -.471E-21   -.448E-05 0.135E-05 -.417E-05
   0.482E-03 0.270E-03 -.150E-03   0.585E-04 -.196E-03 -.146E-03   0.123E-20 0.107E-20 0.893E-22   -.448E-05 0.135E-05 0.850E-05
   0.482E-03 0.270E-03 -.197E-04   0.585E-04 -.196E-03 0.827E-05   -.172E-20 -.761E-21 -.281E-21   -.448E-05 0.135E-05 0.945E-05
   0.482E-03 0.270E-03 0.892E-04   0.585E-04 -.196E-03 0.199E-03   0.257E-20 0.622E-21 0.245E-21   -.448E-05 0.135E-05 -.255E-05
   0.482E-03 0.270E-03 0.154E-03   0.585E-04 -.196E-03 0.475E-03   0.112E-21 0.199E-21 0.146E-21   -.448E-05 0.135E-05 -.112E-04
   0.581E-03 0.336E-03 -.669E-04   0.635E-04 0.367E-04 0.609E-04   -.292E-20 -.983E-21 -.329E-21   -.448E-05 -.258E-05 -.417E-05
   0.581E-03 0.336E-03 -.150E-03   0.635E-04 0.367E-04 -.146E-03   0.933E-21 0.797E-21 0.275E-21   -.448E-05 -.258E-05 0.850E-05
   0.581E-03 0.336E-03 -.197E-04   0.635E-04 0.367E-04 0.827E-05   -.148E-20 -.917E-21 -.121E-21   -.448E-05 -.258E-05 0.945E-05
   0.581E-03 0.336E-03 0.892E-04   0.635E-04 0.367E-04 0.199E-03   0.206E-20 -.430E-22 -.430E-22   -.448E-05 -.258E-05 -.255E-05
   0.581E-03 0.336E-03 0.154E-03   0.635E-04 0.367E-04 0.475E-03   0.973E-21 0.814E-21 -.185E-21   -.448E-05 -.258E-05 -.112E-04
   0.114E-01 0.658E-02 0.675E-02   0.187E-10 0.416E-11 -.152E-11   -.110E-19 -.188E-20 -.265E-20   -.222E-07 -.128E-07 0.235E-07

 POSITION                                       TOTAL-FORCE (eV/Angst)
      0.00000      0.00000      0.00000        -0.000000      0.000000     -0.000000
      0.00000      0.00000      2.10830        -0.000000     -0.000000     -0.000000
      0.00000      0.00000      4.21660         0.000000     -0.000000     -0.000000
      0.00000      0.00000      6.32490         0.000000      0.000000      0.000000
      0.00000      0.00000      8.43320        -0.000000      0.000000      0.000000
      1.05415      1.82584      0.00000        -0.000000      0.000000     -0.000000
      1.05415      1.82584      2.10830        -0.000000      0.000000     -0.000000
      1.05415      1.82584      4.21660         0.000000     -0.000000     -0.000000
      1.05415      1.82584      6.32490        -0.000000     -0.000000     -0.000000
      1.05415      1.82584      8.43320         0.000000      0.000000      0.000000
      2.10830      3.65168      0.00000        -0.000000     -0.000000     -0.000000
      2.10830      3.65168      2.10830        -0.000000     -0.000000     -0.000000
      2.10830      3.65168      4.21660         0.000000     -0.000000     -0.000000
      2.10830      3.65168      6.32490         0.000000     -0.000000      0.000000
      2.10830      3.65168      8.43320        -0.000000     -0.000000      0.000000
      3.16245      5.47752      0.00000         0.000000      0.000000     -0.000000
      3.16245      5.47752      2.10830        -0.000000     -0.000000     -0.000000
      3.16245      5.47752      4.21660        -0.000000     -0.000000     -0.000000
      3.16245      5.47752      6.32490        -0.000000     -0.000000     -0.000000
      3.16245      5.47752      8.43320        -0.000000      0.000000      0.000000
      4.21660      7.30337      0.00000        -0.000000     -0.000000     -0.000000
      4.21660      7.30337      2.10830        -0.000000     -0.000000     -0.000000
      4.21660      7.30337      4.21660         0.000000      0.000000     -0.000000
      4.21660      7.30337      6.32490        -0.000000      0.000000      0.000000
      4.21660      7.30337      8.43320        -0.000000      0.000000      0.000000
      2.10830      0.00000      0.00000         0.000000      0.000000     -0.000000
      2.10830      0.00000      2.10830         0.000000     -0.000000     -0.000000
      2.10830      0.00000      4.21660         0.000000     -0.000000      0.000000
      2.10830      0.00000      6.32490        -0.000000      0.000000     -0.000000
      2.10830      0.00000      8.43320        -0.000000      0.000000      0.000000
      3.16245      1.82584      0.00000         0.000000     -0.000000     -0.000000
      3.16245      1.82584      2.10830         0.000000      0.000000     -0.000000
      3.16245      1.82584      4.21660         0.000000     -0.000000     -0.000000
      3.16245      1.82584      6.32490        -0.000000     -0.000000     -0.000000
      3.16245      1.82584      8.43320        -0.000000      0.000000      0.000000
      4.21660      3.65168      0.00000        -0.000000     -0.000000     -0.000000
      4.21660      3.65168      2.10830        -0.000000      0.000000     -0.000000
      4.21660      3.65168      4.21660        -0.000000      0.000000     -0.000000
      4.21660      3.65168      6.32490        -0.000000     -0.000000     -0.000000
      4.21660      3.65168      8.43320        -0.000000      0.000000      0.000000
      5.27075      5.47752      0.00000        -0.000000      0.000000     -0.000000
      5.27075      5.47752      2.10830         0.000000     -0.000000     -0.000000
      5.27075      5.47752      4.21660         0.000000     -0.000000     -0.000000
      5.27075      5.47752      6.32490        -0.000000     -0.000000     -0.000000
      5.27075      5.47752      8.43320         0.000000      0.000000      0.000000
      6.32490      7.30337      0.00000        -0.000000      0.000000     -0.000000
      6.32490      7.30337      2.10830         0.000000     -0.000000     -0.000000
      6.32490      7.30337      4.21660         0.000000     -0.000000      0.000000
      6.32490      7.30337      6.32490        -0.000000      0.000000     -0.000000
      6.32490      7.30337      8.43320        -0.000000      0.000000      0.000000
      4.21660      0.00000      0.00000         0.000000      0.000000     -0.000000
      4.21660      0.00000      2.10830         0.000000     -0.000000     -0.000000
      4.21660      0.00000      4.21660        -0.000000      0.000000     -0.000000
      4.21660      0.00000      6.32490        -0.000000      0.000000     -0.000000
      4.21660      0.00000      8.43320         0.000000      0.000000      0.000000
      5.27075      1.82584      0.00000         0.000000      0.000000     -0.000000
      5.27075      1.82584      2.10830         0.000000      0.000000      0.000000
      5.27075      1.82584      4.21660        -0.000000      0.000000      0.000000
      5.27075      1.82584      6.32490        -0.000000      0.000000      0.000000
      5.27075      1.82584      8.43320        -0.000000      0.000000      0.000000
[...]
     12.12272      4.56460      1.05415         0.000000      0.000000      0.000000
     12.12272      4.56460      3.16245        -0.000000     -0.000000     -0.000000
     12.12272      4.56460      5.27075         0.000000     -0.000000      0.000000
     12.12272      4.56460      7.37905        -0.000000     -0.000000     -0.000000
     12.12272      4.56460      9.48735         0.000000     -0.000000     -0.000000
     13.17687      6.39044      1.05415         0.000000      0.000000      0.000000
     13.17687      6.39044      3.16245        -0.000000      0.000000      0.000000
     13.17687      6.39044      5.27075         0.000000     -0.000000     -0.000000
     13.17687      6.39044      7.37905        -0.000000     -0.000000     -0.000000
     13.17687      6.39044      9.48735        -0.000000      0.000000      0.000000
     14.23102      8.21629      1.05415         0.000000      0.000000      0.000000
     14.23102      8.21629      3.16245        -0.000000      0.000000      0.000000
     14.23102      8.21629      5.27075        -0.000000      0.000000     -0.000000
     14.23102      8.21629      7.37905        -0.000000     -0.000000     -0.000000
     14.23102      8.21629      9.48735        -0.000000     -0.000000     -0.000000
    total drift:                                0.011391      0.006576      0.006754

  FREE ENERGIE OF THE ION-ELECTRON SYSTEM (eV)
  free  energy   TOTEN  =       537.81588163 eV

  energy  without entropy=      537.88233888  energy(sigma->0) =      537.84911026

 stress matrix after NEB project (eV)
   -146.61135     -0.48199      0.00000
     -0.48199   -146.05479      0.00000
      0.00000      0.00000   -148.02681
  FORCES: max atom, RMS     0.000000    0.000000
  FORCE total and by dimension    0.000000    0.000000
  Stress total and by dimension  254.439165  148.026808

 reached required accuracy - stopping structural energy minimisation