 vasp.6.2.1 16May21 (build Jun 16 2021 03:23:30) complex
 executed on             LinuxPGI date 2022.04.25  11:32:55

 INCAR:
   SYSTEM = NiAl
   ISTART = 0
   EDIFF = 5E-6
   NELMIN = 6
   NELM = 250
   IVDW = 12
   LWAVE = .FALSE.
   LCHARG = .FALSE.
   LREAL = Auto
   NCORE = 1
   LPLANE = .TRUE.
   ENCUT = 360.00 eV
   ISMEAR = 0
   SIGMA = 0.05

 POTCAR:    PAW Ni_GW 31Mar2010
 POTCAR:    PAW O_GW 19Mar2012
 POTCAR:    PAW Ni_GW 31Mar2010
   VRHFIN =Ni:

   TITEL  = PAW Ni_GW 31Mar2010
   POMASS =   58.690; ZVAL   =   10.000    mass and valenz
   ENMAX  =  357.323; ENMIN  =  267.992 eV

 POTCAR:    PAW O_GW 19Mar2012
   VRHFIN =O: s2p4

   TITEL  = PAW O_GW 19Mar2012
   POMASS =   16.000; ZVAL   =    6.000    mass and valenz
   ENMAX  =  434.431; ENMIN  =  325.824 eV

 Optimization of the real space projectors (new method)

 maximal supplied QI-value         = 16.25
 optimisation between [QCUT,QGAM] = [  9.59, 19.34] = [ 25.75,104.73] Ry
 Optimized for a Real-space Cutoff    1.46 Angstroem

   l    n(q)    QCUT    max X(q) W(low)/X(q) W(high)/X(q)  e(spline)
   2      7     9.588    94.285    0.33E-03    0.50E-03    0.16E-06
   2      7     9.588    92.549    0.33E-03    0.50E-03    0.16E-06
   0      8     9.588    17.118    0.28E-04    0.17E-03    0.57E-07
   0      8     9.588     8.062    0.24E-04    0.17E-03    0.61E-07
   1      8     9.588     4.910    0.48E-03    0.22E-03    0.79E-07
   1      8     9.588     3.344    0.32E-03    0.14E-03    0.56E-07
   3      7     9.588     5.513    0.55E-04    0.16E-03    0.12E-06
 Optimization of the real space projectors (new method)

 maximal supplied QI-value         = 23.62
 optimisation between [QCUT,QGAM] = [  9.68, 19.37] = [ 26.27,105.06] Ry
 Optimized for a Real-space Cutoff    2.14 Angstroem

   l    n(q)    QCUT    max X(q) W(low)/X(q) W(high)/X(q)  e(spline)
   0     13     9.685   116.464    0.15E-03    0.15E-03    0.47E-05
   0     13     9.685   116.329    0.15E-03    0.15E-03    0.46E-05
   0     13     9.685     0.942    0.20E-04    0.50E-04    0.17E-05
   1     12     9.685    29.046    0.36E-03    0.11E-02    0.25E-04
   1     12     9.685    24.247    0.38E-03    0.11E-02    0.26E-04
   1     12     9.685     2.381    0.13E-03    0.38E-03    0.78E-05
   2     12     9.685     2.237    0.60E-05    0.28E-04    0.14E-05
   2     12     9.685     1.850    0.17E-04    0.70E-04    0.25E-05
  PAW Ni_GW 31Mar2010                   :
  PAW O_GW 19Mar2012                    :

 POSCAR: New structure
  positions in cartesian coordinates
 exchange correlation table for  LEXCH =        8
   RHO(1)=    0.500       N(1)  =     2000
   RHO(2)=  100.500       N(2)  =     4000

 VTST: version 4.1, (05/19/21)

 CHAIN: initializing optimizer

 OPT: Using VASP Dynamics algorithm
 CHAIN: Read ICHAIN             0

 POSCAR: New structure
  positions in cartesian coordinates

 ion  position               nearest neighbor table
   1  0.444  0.444  0.104-  73 2.47 199 2.47 136 2.47 190 2.52  65 2.52 127 2.52 130 2.52  67 2.52
                           191 2.52
   2  0.444  0.778  0.104-  74 2.47 200 2.47 137 2.47 191 2.52  66 2.52 131 2.52 128 2.52 192 2.52
                            68 2.52
   3  0.444  0.111  0.104- 138 2.47  75 2.47 201 2.47  64 2.52 190 2.52 132 2.52 129 2.52 192 2.52
                            69 2.52
   4  0.778  0.444  0.104-  76 2.47 202 2.47 139 2.47 193 2.52  68 2.52 130 2.52 133 2.52  70 2.52
                           194 2.52
   5  0.778  0.778  0.104-  77 2.47 203 2.47 140 2.47 194 2.52  69 2.52 134 2.52 131 2.52 195 2.52
                            71 2.52
   6  0.778  0.111  0.104- 141 2.47  78 2.47 204 2.47  67 2.52 193 2.52 135 2.52 132 2.52 195 2.52
                            72 2.52
   7  0.111  0.444  0.104-  79 2.47 205 2.47 142 2.47 196 2.52  71 2.52 127 2.52 133 2.52  64 2.52
                           197 2.52
   8  0.111  0.778  0.104-  80 2.47 206 2.47 143 2.47 197 2.52  72 2.52 128 2.52 134 2.52 198 2.52
                            65 2.52
   9  0.111  0.111  0.104- 144 2.47  81 2.47 207 2.47  70 2.52 196 2.52 129 2.52 198 2.52 135 2.52
                            66 2.52
  10  0.556  0.556  0.173- 191 2.47  68 2.47 130 2.47  82 2.48 208 2.48 145 2.48  74 2.52 199 2.52
                           139 2.52 136 2.52 200 2.52  76 2.52
  11  0.556  0.889  0.173- 192 2.47  69 2.47 131 2.47 146 2.48  83 2.48 209 2.48  75 2.52 201 2.52
                           200 2.52 137 2.52 140 2.52  77 2.52
  12  0.556  0.222  0.173- 190 2.47 132 2.47  67 2.47  84 2.48 210 2.48 147 2.48 201 2.52  73 2.52
                           138 2.52 141 2.52 199 2.52  78 2.52
  13  0.889  0.556  0.173- 194 2.47  71 2.47 133 2.47  85 2.48 148 2.48 211 2.48  77 2.52 202 2.52
                           139 2.52 142 2.52 203 2.52  79 2.52
  14  0.889  0.889  0.173- 195 2.47  72 2.47 134 2.47 149 2.48  86 2.48 212 2.48  78 2.52 204 2.52
                           203 2.52 140 2.52 143 2.52  80 2.52
  15  0.889  0.222  0.173- 193 2.47 135 2.47  70 2.47  87 2.48 150 2.48 213 2.48 204 2.52  76 2.52
                           141 2.52 144 2.52 202 2.52  81 2.52
  16  0.222  0.556  0.173- 197 2.47  65 2.47 127 2.47  88 2.48 214 2.48 151 2.48  80 2.52 205 2.52
                           136 2.52 142 2.52 206 2.52  73 2.52
  17  0.222  0.889  0.173- 198 2.47  66 2.47 128 2.47 152 2.48  89 2.48 215 2.48  81 2.52 207 2.52
                           206 2.52 143 2.52 137 2.52  74 2.52
  18  0.222  0.222  0.173- 196 2.47 129 2.47  64 2.47  90 2.48 216 2.48 153 2.48 207 2.52  79 2.52
                           144 2.52 138 2.52 205 2.52  75 2.52
  19  0.667  0.667  0.242- 154 2.48  91 2.48 217 2.48 200 2.48  77 2.48 139 2.48  83 2.52 209 2.52
                           208 2.52 145 2.52 148 2.52  85 2.52
  20  0.667  0.000  0.242-  92 2.48 218 2.48 155 2.48 201 2.48 140 2.48  78 2.48  84 2.52 146 2.52
                           149 2.52 209 2.52 210 2.52  86 2.52
  21  0.667  0.333  0.242- 156 2.48  93 2.48 219 2.48 199 2.48  76 2.48 141 2.48 210 2.52  82 2.52
                           150 2.52 147 2.52  87 2.52 208 2.52
  22  1.000  0.667  0.242- 157 2.48  94 2.48 220 2.48 203 2.48  80 2.48 142 2.48  86 2.52 212 2.52
                           211 2.52 151 2.52 148 2.52  88 2.52
  23  0.000  0.000  0.242-  95 2.48 221 2.48 158 2.48 204 2.48 143 2.48  81 2.48  87 2.52 152 2.52
                           212 2.52 149 2.52 213 2.52  89 2.52
  24  1.000  0.333  0.242- 159 2.48  96 2.48 222 2.48 202 2.48  79 2.48 144 2.48 213 2.52  85 2.52
                           153 2.52 150 2.52  90 2.52 211 2.52
  25  0.333  0.667  0.242- 160 2.48  97 2.48 223 2.48 206 2.48  74 2.48 136 2.48  89 2.52 215 2.52
                           214 2.52 151 2.52 145 2.52  82 2.52
  26  0.333  0.000  0.242-  98 2.48 224 2.48 161 2.48 207 2.48 137 2.48  75 2.48  90 2.52 152 2.52
                           146 2.52 215 2.52 216 2.52  83 2.52
  27  0.333  0.333  0.242- 162 2.48  99 2.48 225 2.48 205 2.48  73 2.48 138 2.48 216 2.52  88 2.52
                           147 2.52 153 2.52  84 2.52 214 2.52
  28  0.778  0.778  0.312- 209 2.48 100 2.48 148 2.48  86 2.48 226 2.48 163 2.48 217 2.52  92 2.52
                           157 2.52 154 2.52 218 2.52  94 2.52
  29  0.778  0.111  0.312- 210 2.48 164 2.48 101 2.48  87 2.48 149 2.48 227 2.48  93 2.52 219 2.52
                           155 2.52 158 2.52 218 2.52  95 2.52
  30  0.778  0.444  0.312- 102 2.48 150 2.48 208 2.48 228 2.48 165 2.48  85 2.48 219 2.52  91 2.52
                           156 2.52 159 2.52  96 2.52 217 2.52
  31  0.111  0.778  0.312- 212 2.48 103 2.48 151 2.48  89 2.48 229 2.48 166 2.48 220 2.52  95 2.52
                           160 2.52 157 2.52 221 2.52  97 2.52
  32  0.111  0.111  0.312- 213 2.48 167 2.48 104 2.48  90 2.48 152 2.48 230 2.48  96 2.52 222 2.52
                           161 2.52 221 2.52 158 2.52  98 2.52
  33  0.111  0.444  0.312- 105 2.48 153 2.48 211 2.48 231 2.48 168 2.48  88 2.48 222 2.52  94 2.52
                           162 2.52 159 2.52  99 2.52 220 2.52
  34  0.444  0.778  0.312- 215 2.48 106 2.48 145 2.48  83 2.48 232 2.48 169 2.48 223 2.52  98 2.52
                           154 2.52 160 2.52 224 2.52  91 2.52
  35  0.444  0.111  0.312- 216 2.48 170 2.48 107 2.48  84 2.48 146 2.48 233 2.48  99 2.52 225 2.52
                           155 2.52 161 2.52 224 2.52  92 2.52
  36  0.444  0.444  0.312- 108 2.48 147 2.48 214 2.48 234 2.48 171 2.48  82 2.48 225 2.52  97 2.52
                           162 2.52 156 2.52  93 2.52 223 2.52
  37  0.889  0.889  0.381- 218 2.48  95 2.48 157 2.48 172 2.48 109 2.48 235 2.48 101 2.52 227 2.52
                           226 2.52 163 2.52 166 2.52 103 2.52
  38  0.889  0.222  0.381- 219 2.48 158 2.48  96 2.48 110 2.48 173 2.48 236 2.48 227 2.52 102 2.52
                           164 2.52 167 2.52 228 2.52 104 2.52
  39  0.889  0.556  0.381- 217 2.48  94 2.48 159 2.48 111 2.48 174 2.48 237 2.48 100 2.52 228 2.52
                           165 2.52 168 2.52 226 2.52 105 2.52
  40  0.222  0.889  0.381- 221 2.48  98 2.48 160 2.48 175 2.48 112 2.48 238 2.48 104 2.52 230 2.52
                           229 2.52 169 2.52 166 2.52 106 2.52
  41  0.222  0.222  0.381- 222 2.48 161 2.48  99 2.48 113 2.48 239 2.48 176 2.48 230 2.52 105 2.52
                           167 2.52 170 2.52 231 2.52 107 2.52
  42  0.222  0.556  0.381- 220 2.48  97 2.48 162 2.48 114 2.48 240 2.48 177 2.48 103 2.52 231 2.52
                           171 2.52 168 2.52 229 2.52 108 2.52
  43  0.556  0.889  0.381- 224 2.48  92 2.48 154 2.48 178 2.48 115 2.48 241 2.48 107 2.52 233 2.52
                           232 2.52 169 2.52 163 2.52 100 2.52
  44  0.556  0.222  0.381- 225 2.48 155 2.48  93 2.48 116 2.48 242 2.48 179 2.48 233 2.52 108 2.52
                           170 2.52 164 2.52 234 2.52 101 2.52
  45  0.556  0.556  0.381- 223 2.48  91 2.48 156 2.48 117 2.48 243 2.48 180 2.48 106 2.52 234 2.52
                           165 2.52 171 2.52 232 2.52 102 2.52
  46  0.000  0.000  0.450- 118 2.47 244 2.47 181 2.47 227 2.48 166 2.48 104 2.48 110 2.52 175 2.52
                           235 2.52 172 2.52 236 2.52 112 2.52
  47  1.000  0.333  0.450- 182 2.47 119 2.47 245 2.47 228 2.48 105 2.48 167 2.48 236 2.52 111 2.52
                           176 2.52 173 2.52 113 2.52 237 2.52
  48  1.000  0.667  0.450- 183 2.47 120 2.47 246 2.47 226 2.48 103 2.48 168 2.48 109 2.52 235 2.52
                           237 2.52 177 2.52 174 2.52 114 2.52
  49  0.333  0.000  0.450- 121 2.47 247 2.47 184 2.47 230 2.48 169 2.48 107 2.48 113 2.52 175 2.52
                           178 2.52 238 2.52 239 2.52 115 2.52
  50  0.333  0.333  0.450- 185 2.47 122 2.47 248 2.47 231 2.48 108 2.48 170 2.48 239 2.52 114 2.52
                           179 2.52 176 2.52 116 2.52 240 2.52
  51  0.333  0.667  0.450- 186 2.47 123 2.47 249 2.47 229 2.48 106 2.48 171 2.48 112 2.52 238 2.52
                           240 2.52 177 2.52 180 2.52 117 2.52
  52  0.667  0.000  0.450- 124 2.47 250 2.47 187 2.47 233 2.48 163 2.48 101 2.48 116 2.52 178 2.52
                           172 2.52 241 2.52 242 2.52 109 2.52
[...]
   0.507E+04 -.123E+00 -.189E+00   -.507E+04 0.115E+00 0.198E+00   -.184E+01 0.720E-02 0.134E-02   0.495E-02 0.555E-02 -.765E-02
   0.507E+04 0.222E+00 0.386E+00   -.507E+04 -.228E+00 -.393E+00   -.183E+01 0.623E-02 -.555E-02   -.380E-02 0.536E-02 0.693E-02
   0.507E+04 -.106E+00 -.201E+00   -.507E+04 0.112E+00 0.198E+00   -.185E+01 0.184E-02 0.108E-02   -.669E-02 -.807E-02 -.275E-02
   0.507E+04 0.400E+00 -.104E+00   -.507E+04 -.414E+00 0.106E+00   -.183E+01 -.393E-02 0.132E-01   0.459E-02 0.146E-01 -.730E-02
   0.507E+04 0.726E-01 0.898E-01   -.507E+04 -.732E-01 -.849E-01   -.185E+01 -.123E-01 -.809E-02   -.244E-02 0.378E-02 0.922E-03
   0.507E+04 0.768E-01 -.298E+00   -.507E+04 -.752E-01 0.306E+00   -.184E+01 0.791E-02 -.909E-02   -.321E-02 0.675E-02 -.594E-02
   0.507E+04 -.283E+00 -.758E-01   -.507E+04 0.299E+00 0.850E-01   -.185E+01 -.161E-02 0.351E-02   -.294E-02 -.182E-01 -.109E-01
   0.507E+04 -.293E+00 0.295E+00   -.507E+04 0.300E+00 -.304E+00   -.184E+01 0.153E-02 0.149E-01   0.470E-02 -.877E-02 0.115E-01
   0.507E+04 0.375E-01 0.882E-01   -.507E+04 -.378E-01 -.102E+00   -.183E+01 -.148E-01 -.909E-02   -.894E-02 -.272E-02 0.153E-01
   0.339E+04 0.690E+00 0.138E+00   -.339E+04 -.700E+00 -.147E+00   -.158E+00 -.282E-02 -.513E-03   0.366E-01 0.888E-02 0.798E-02
   0.339E+04 0.372E+00 0.297E+00   -.339E+04 -.373E+00 -.304E+00   -.153E+00 0.354E-02 0.592E-02   0.187E-01 0.189E-02 0.187E-02
   0.339E+04 -.160E+00 -.968E+00   -.339E+04 0.161E+00 0.975E+00   -.168E+00 0.323E-03 0.102E-01   0.204E-01 -.160E-02 -.126E-01
   0.339E+04 0.240E+00 0.591E-01   -.339E+04 -.242E+00 -.509E-01   -.155E+00 0.720E-03 0.538E-03   0.388E-01 -.901E-04 -.532E-02
   0.339E+04 -.280E+00 0.667E-01   -.339E+04 0.285E+00 -.748E-01   -.158E+00 -.821E-03 -.257E-02   0.413E-01 -.762E-02 0.106E-01
   0.339E+04 0.503E+00 -.391E+00   -.339E+04 -.523E+00 0.403E+00   -.162E+00 -.163E-02 -.485E-02   0.495E-01 0.202E-01 -.140E-01
   0.339E+04 -.930E+00 0.103E+00   -.339E+04 0.939E+00 -.985E-01   -.163E+00 0.468E-02 0.910E-03   0.343E-01 -.112E-01 -.596E-02
   0.339E+04 -.917E-01 0.892E+00   -.339E+04 0.859E-01 -.910E+00   -.164E+00 -.297E-02 -.110E-02   0.303E-01 0.379E-02 0.203E-01
   0.339E+04 -.346E+00 -.209E+00   -.339E+04 0.359E+00 0.210E+00   -.166E+00 0.351E-02 0.586E-03   0.329E-01 -.157E-01 -.181E-02
   0.171E+04 0.211E+01 0.942E+00   -.171E+04 -.210E+01 -.956E+00   -.183E-01 -.166E-01 -.727E-02   0.509E-01 0.575E-02 0.177E-01
   0.171E+04 -.935E-02 -.104E+01   -.171E+04 0.118E-01 0.102E+01   -.214E-01 -.524E-04 0.974E-02   0.498E-01 -.638E-02 0.504E-02
   0.171E+04 0.145E+01 -.197E+01   -.171E+04 -.144E+01 0.198E+01   -.249E-01 -.155E-02 0.481E-02   0.541E-01 -.122E-01 -.155E-01
   0.171E+04 -.152E+01 0.618E+00   -.171E+04 0.152E+01 -.607E+00   -.335E-01 0.148E-01 -.853E-02   0.495E-01 -.138E-01 -.385E-02
   0.171E+04 -.200E+00 0.570E+00   -.171E+04 0.191E+00 -.579E+00   -.311E-01 0.899E-02 0.362E-02   0.554E-01 0.428E-02 0.842E-02
   0.171E+04 0.499E+00 -.489E+00   -.171E+04 -.516E+00 0.498E+00   -.252E-01 0.185E-02 -.253E-02   0.671E-01 0.157E-01 -.935E-02
   0.171E+04 -.592E+00 0.179E+01   -.171E+04 0.582E+00 -.179E+01   -.160E-01 0.141E-02 -.297E-02   0.450E-01 0.101E-01 0.992E-02
   0.171E+04 0.202E+00 0.117E+01   -.171E+04 -.204E+00 -.117E+01   -.205E-01 -.389E-02 -.614E-03   0.507E-01 0.320E-02 0.391E-02
   0.171E+04 -.195E+01 -.159E+01   -.171E+04 0.195E+01 0.161E+01   -.978E-02 -.175E-02 -.143E-02   0.474E-01 -.477E-02 -.176E-01
   0.237E+02 0.879E+00 0.996E+00   -.237E+02 -.880E+00 -.100E+01   -.276E-02 0.460E-02 0.101E-01   0.452E-01 -.585E-02 0.119E-02
   0.262E+02 0.105E+01 -.400E+01   -.262E+02 -.105E+01 0.403E+01   -.791E-02 0.220E-01 -.147E-01   0.497E-01 -.973E-02 -.120E-01
   0.292E+02 0.589E+01 -.149E+01   -.293E+02 -.591E+01 0.148E+01   0.663E-02 0.584E-02 -.168E-03   0.466E-01 0.104E-01 0.123E-01
   0.292E+02 -.422E+01 0.436E+01   -.293E+02 0.423E+01 -.438E+01   -.189E-01 -.156E-01 0.236E-01   0.255E-01 -.140E-02 0.794E-02
   0.237E+02 0.421E+00 0.127E+01   -.237E+02 -.431E+00 -.126E+01   -.745E-02 -.134E-01 -.580E-02   0.618E-01 0.800E-02 -.593E-02
   0.262E+02 -.401E+01 -.110E+01   -.262E+02 0.401E+01 0.110E+01   -.120E-01 -.723E-03 0.220E-02   0.439E-01 -.158E-02 -.400E-02
   0.313E+02 0.337E+01 0.584E+01   -.313E+02 -.337E+01 -.584E+01   -.243E-01 0.345E-02 -.498E-02   0.541E-01 0.619E-02 0.846E-02
   0.251E+02 -.147E+01 -.255E+01   -.252E+02 0.147E+01 0.255E+01   -.116E-01 -.487E-02 -.295E-02   0.668E-01 0.106E-02 -.134E-03
   0.391E+02 -.195E+01 -.337E+01   -.392E+02 0.196E+01 0.339E+01   -.492E-02 0.227E-02 -.104E-01   0.399E-01 -.773E-02 -.789E-02
   -.166E+04 -.357E+01 0.123E+01   0.166E+04 0.355E+01 -.120E+01   0.189E-01 0.131E-01 -.840E-02   0.320E-01 0.404E-02 -.794E-02
   -.166E+04 0.737E+01 -.605E+01   0.166E+04 -.738E+01 0.606E+01   0.257E-01 0.157E-01 -.683E-02   0.414E-01 -.252E-02 -.120E-01
   -.166E+04 0.338E+01 0.622E+00   0.166E+04 -.339E+01 -.634E+00   0.339E-01 -.299E-02 -.463E-02   0.422E-01 0.122E-01 0.145E-01
   -.165E+04 -.139E+01 0.146E+02   0.165E+04 0.140E+01 -.146E+02   0.236E-01 -.338E-02 0.134E-01   0.383E-01 -.790E-02 -.812E-02
   -.166E+04 -.456E+01 -.283E+01   0.166E+04 0.457E+01 0.283E+01   0.218E-01 -.108E-01 -.397E-02   0.578E-01 0.334E-02 0.805E-02
   -.164E+04 -.188E+02 0.171E+01   0.164E+04 0.188E+02 -.177E+01   0.346E-01 -.566E-02 0.182E-01   0.139E-01 -.595E-02 0.789E-02
   -.166E+04 0.491E+01 0.437E+01   0.166E+04 -.490E+01 -.434E+01   0.371E-01 -.696E-02 -.491E-02   0.641E-01 0.517E-02 -.110E-01
   -.165E+04 -.299E+01 -.171E+02   0.165E+04 0.298E+01 0.171E+02   0.143E-01 -.828E-02 0.256E-01   0.449E-01 0.310E-02 0.265E-02
   -.163E+04 0.162E+02 0.366E+01   0.163E+04 -.162E+02 -.370E+01   0.111E-01 0.221E-01 0.211E-01   0.260E-01 -.650E-02 0.101E-01
   -.336E+04 -.234E+01 0.643E+01   0.336E+04 0.234E+01 -.642E+01   0.153E+00 0.975E-02 0.773E-02   0.204E-01 -.457E-02 -.210E-01
   -.336E+04 0.544E+01 -.448E+01   0.336E+04 -.544E+01 0.447E+01   0.168E+00 -.245E-02 0.428E-03   0.118E-01 0.370E-02 0.690E-02
   -.335E+04 -.186E+02 0.668E+01   0.335E+04 0.185E+02 -.668E+01   0.156E+00 -.256E-02 0.765E-02   0.221E-01 0.200E-01 0.324E-02
   -.336E+04 0.278E+01 0.125E+02   0.336E+04 -.276E+01 -.125E+02   0.172E+00 -.643E-02 0.200E-02   0.327E-01 -.185E-01 -.891E-02
   -.333E+04 -.328E+02 -.279E+02   0.333E+04 0.328E+02 0.278E+02   0.198E+00 -.391E-01 -.106E-01   0.192E-01 0.760E-02 0.282E-01
   -.326E+04 -.167E+02 0.609E+02   0.326E+04 0.166E+02 -.611E+02   0.426E+00 0.374E-01 0.638E-01   0.103E-01 -.137E-01 -.205E-02
   -.336E+04 -.440E+00 -.101E+02   0.336E+04 0.417E+00 0.101E+02   0.163E+00 -.336E-02 0.239E-02   0.383E-01 0.245E-01 -.508E-02
   -.331E+04 0.321E+02 -.467E+02   0.331E+04 -.322E+02 0.466E+02   0.183E+00 0.348E-01 0.454E-01   0.929E-02 -.141E-01 0.588E-02
   -.334E+04 0.303E+02 0.140E+02   0.334E+04 -.303E+02 -.140E+02   0.160E+00 0.169E-01 0.495E-02   0.262E-01 -.287E-02 -.728E-02
   -.506E+04 0.216E+01 0.700E+01   0.505E+04 -.215E+01 -.699E+01   0.184E+01 -.803E-02 -.141E-01   -.186E-01 -.149E-01 -.106E-02
   -.505E+04 -.311E+02 -.811E+01   0.505E+04 0.311E+02 0.808E+01   0.179E+01 0.362E-01 0.890E-02   -.885E-02 0.118E-01 0.171E-01
   -.504E+04 -.470E+02 0.507E+02   0.504E+04 0.470E+02 -.507E+02   0.188E+01 0.776E-03 -.340E-02   0.257E-02 -.110E-03 -.143E-01
   -.505E+04 -.100E+02 -.174E+02   0.505E+04 0.100E+02 0.174E+02   0.180E+01 0.439E-02 -.132E-02   -.206E-01 0.447E-02 0.201E-01
   -.475E+04 -.190E+03 -.329E+03   0.475E+04 0.197E+03 0.341E+03   0.617E+01 -.491E+01 -.834E+01   -.174E-02 -.436E-02 0.854E-02
   -.503E+04 0.462E+02 0.801E+02   0.503E+04 -.464E+02 -.803E+02   0.198E+01 0.904E-01 0.784E-01   -.106E-01 -.226E-01 -.218E-01
[...]
   -.336E+04 0.853E+01 0.544E+01   0.336E+04 -.855E+01 -.542E+01   0.163E+00 -.375E-02 0.171E-02   0.383E-01 0.167E-01 -.187E-01
   -.334E+04 0.306E+01 -.332E+02   0.334E+04 -.305E+01 0.332E+02   0.160E+00 0.418E-02 -.171E-01   0.262E-01 0.487E-02 0.612E-02
   -.331E+04 0.565E+02 -.449E+01   0.331E+04 -.565E+02 0.453E+01   0.183E+00 -.219E-01 -.528E-01   0.929E-02 -.121E-01 0.926E-02
   -.505E+04 -.853E+01 0.310E+02   0.505E+04 0.853E+01 -.309E+02   0.179E+01 0.104E-01 -.358E-01   -.886E-02 -.887E-02 -.187E-01
   -.506E+04 -.499E+01 -.538E+01   0.505E+04 0.499E+01 0.535E+01   0.184E+01 0.820E-02 0.140E-01   -.186E-01 -.655E-02 0.135E-01
   -.504E+04 -.674E+02 0.154E+02   0.504E+04 0.674E+02 -.154E+02   0.188E+01 0.333E-02 0.103E-02   0.257E-02 0.123E-01 0.725E-02
   -.505E+04 0.101E+02 0.174E+02   0.505E+04 -.100E+02 -.174E+02   0.180E+01 0.334E-02 -.314E-02   -.206E-01 -.151E-01 -.139E-01
   -.503E+04 -.463E+02 -.801E+02   0.503E+04 0.464E+02 0.803E+02   0.198E+01 -.227E-01 -.117E+00   -.106E-01 0.764E-02 0.305E-01
   -.475E+04 0.190E+03 0.329E+03   0.475E+04 -.197E+03 -.341E+03   0.617E+01 0.476E+01 0.842E+01   -.174E-02 -.957E-02 -.491E-03
   -.506E+04 -.217E+01 -.700E+01   0.505E+04 0.215E+01 0.700E+01   0.183E+01 -.203E-02 0.812E-02   -.481E-02 0.211E-01 -.876E-02
   -.504E+04 0.470E+02 -.506E+02   0.504E+04 -.470E+02 0.507E+02   0.186E+01 -.201E-01 -.426E-01   -.188E-01 -.126E-02 0.589E-02
   -.505E+04 0.311E+02 0.811E+01   0.505E+04 -.311E+02 -.808E+01   0.179E+01 -.431E-01 -.780E-02   -.101E-01 0.105E-02 -.867E-02
   -.338E+04 0.185E+03 -.107E+03   0.342E+04 -.210E+03 0.121E+03   -.370E+02 0.182E+02 -.105E+02   -.612E-02 -.223E-02 0.129E-02
   -.338E+04 -.185E+03 0.107E+03   0.342E+04 0.210E+03 -.121E+03   -.364E+02 -.181E+02 0.104E+02   -.558E-02 -.181E-02 0.104E-02
   0.519E+02 -.112E+00 0.986E-01   0.123E-10 -.767E-12 -.369E-12   -.587E+02 0.125E+00 -.721E-01   0.659E+01 -.396E-02 0.229E-02

 POSITION                                       TOTAL-FORCE (eV/Angst)
      3.02601    -10.09748     -5.82978         0.121130      0.005153      0.002548
      3.02601    -12.62185    -10.20212         0.132608      0.007215     -0.005524
      3.02601     -7.57311     -1.45745         0.122277      0.000150     -0.006592
      3.02601    -15.14622     -5.82978         0.131912     -0.001972      0.008998
      3.02601    -17.67059    -10.20212         0.132505     -0.008667     -0.002619
      3.02601    -12.62185     -1.45745         0.122674      0.016776     -0.009557
      3.02601     -5.04874     -5.82978         0.121174     -0.003719      0.002130
      3.02601     -7.57311    -10.20212         0.123554      0.000300      0.017204
      3.02601     -2.52437     -1.45745         0.122611     -0.016146     -0.008998
      5.02238    -12.62185     -7.28723         0.129849     -0.002431     -0.001857
      5.02238    -15.14622    -11.65957         0.127211      0.005272      0.000716
      5.02238    -10.09748     -2.91489         0.129213     -0.000128      0.004826
      5.02238    -17.67059     -7.28723         0.129188     -0.000271      0.002858
      5.02238    -20.19496    -11.65957         0.129584     -0.003543     -0.001194
      5.02238    -15.14622     -2.91489         0.125611     -0.000382     -0.005955
      5.02238     -7.57311     -7.28723         0.127137      0.002793     -0.001454
      5.02238    -10.09748    -11.65957         0.125882     -0.004033      0.000725
      5.02238     -5.04874     -2.91489         0.127484      0.002313     -0.000717
      7.03247    -15.14622     -8.74468         0.011110     -0.006787     -0.005140
      7.03247    -10.09748      0.00000         0.004862     -0.002397     -0.004508
      7.03247    -12.62185     -4.37234         0.004973      0.001421      0.000280
      7.03247    -20.19496     -8.74468         0.001407      0.003191     -0.002677
      7.03247      0.00000      0.00000         0.001853      0.004414      0.001547
      7.03247    -17.67059     -4.37234         0.003654      0.000706     -0.002407
      7.03247    -10.09748     -8.74468         0.003148      0.002221      0.001127
      7.03247     -5.04874      0.00000         0.006301     -0.002961      0.000942
      7.03247     -7.57311     -4.37234         0.016173     -0.002898     -0.000654
      9.04019    -17.67059    -10.20212         0.001482     -0.001276      0.002516
      9.04019    -12.62185     -1.45745        -0.010780      0.017108     -0.006324
      9.04019    -15.14622     -5.82978         0.003073     -0.000778      0.003719
      9.04019     -7.57311    -10.20212        -0.018596      0.001456      0.014606
      9.04019     -2.52437     -1.45745        -0.006957     -0.014069     -0.006385
      9.04019     -5.04874     -5.82978        -0.013538      0.000177      0.002867
      9.04019    -12.62185    -10.20212         0.003779      0.008046     -0.004308
      9.04019     -7.57311     -1.45745        -0.014002     -0.000668     -0.003590
      9.04019    -10.09748     -5.82978        -0.012379      0.002678      0.004605
     11.04791    -20.19496    -11.65957        -0.001771      0.002848      0.004743
     11.04791    -15.14622     -2.91489         0.000611      0.006836     -0.007225
     11.04791    -17.67059     -7.28723         0.010545     -0.001076     -0.002169
     11.04791    -10.09748    -11.65957         0.002155     -0.006469      0.008954
     11.04791     -5.04874     -2.91489        -0.004078     -0.005480     -0.002715
     11.04791     -7.57311     -7.28723        -0.016279      0.017348     -0.027835
     11.04791    -15.14622    -11.65957         0.016247      0.006558      0.008106
     11.04791    -10.09748     -2.91489        -0.028716     -0.010423      0.032804
     11.04791    -12.62185     -7.28723         0.009347     -0.009199     -0.008676
     13.05800      0.00000      0.00000        -0.135394      0.006293     -0.001964
     13.05800    -17.67059     -4.37234        -0.131149     -0.000802     -0.000746
     13.05800    -20.19496     -8.74468        -0.138240     -0.011222      0.005262
     13.05800     -5.04874      0.00000        -0.129974     -0.002147     -0.003474
     13.05800     -7.57311     -4.37234        -0.114539     -0.003665     -0.004042
     13.05800    -10.09748     -8.74468        -0.360979     -0.050841     -0.102816
     13.05800    -10.09748      0.00000        -0.136180     -0.000062      0.005790
     13.05800    -12.62185     -4.37234        -0.174018     -0.012186      0.032843
     13.05800    -15.14622     -8.74468        -0.143940      0.030720      0.008487
     15.05437     -2.52437     -1.45745        -0.109111     -0.004438     -0.004300
     15.05437     -5.04874     -5.82978        -0.137475     -0.010646     -0.007700
     15.05437     -7.57311    -10.20212        -0.149707      0.006076      0.004828
     15.05437     -7.57311     -1.45745        -0.129274      0.007650      0.009660
     15.05437    -10.09748     -5.82978        -1.740589      1.847991      3.223880
     15.05437    -12.62185    -10.20212        -0.200620     -0.069646     -0.138450
[...]
     13.05800     -8.83530     -6.55851        -0.360979      0.063621      0.095437
     13.05800    -16.40841    -10.93084        -0.136180     -0.005045     -0.002842
     13.05800    -11.35967     -2.18617        -0.143940      0.008010     -0.030848
     13.05800    -13.88404     -6.55851        -0.174018     -0.034536     -0.005868
     15.05437     -8.83530    -12.38829        -0.137475      0.001346      0.013070
     15.05437     -3.78656     -3.64361        -0.109111      0.001505      0.005994
     15.05437     -6.31093     -8.01595        -0.149707     -0.001143     -0.007676
     15.05437    -13.88404    -12.38829        -0.129274     -0.004541     -0.011456
     15.05437     -8.83530     -3.64361        -0.200620      0.085078      0.129540
     15.05437    -11.35967     -8.01595        -1.740589     -1.867966     -3.212347
     15.05437    -18.93278    -12.38829        -0.119218     -0.002902     -0.000443
     15.05437    -13.88404     -3.64361        -0.149455     -0.017173      0.006153
     15.05437    -16.40841     -8.01595        -0.120961      0.010336      0.013551
     16.05000    -11.35967     -6.55851         3.454986     -7.035667      4.062044
     16.05000    -10.09748     -7.28723         3.412195      6.993218     -4.037537
    total drift:                               -0.216542      0.009149      0.028771

  FREE ENERGIE OF THE ION-ELECTRON SYSTEM (eV)
  free  energy   TOTEN  =     -1422.97512337 eV

  energy  without entropy=    -1421.51452270  energy(sigma->0) =    -1422.24482304

 stress matrix after NEB project (eV)
   -164.35784      0.02626     -0.01516
      0.02629   -308.66810     -3.83355
     -0.01518     -3.83355   -313.09470
  FORCES: max atom, RMS     8.828235    0.891867
  FORCE total and by dimension   14.214018    7.035667
  Stress total and by dimension  469.411529  313.094705