 vasp.6.2.1 16May21 (build Jun 16 2021 03:23:30) complex
 executed on             LinuxPGI date 2022.04.24  18:26:50

 INCAR:
   SYSTEM = NiAl
   ISTART = 0
   EDIFF = 1E-7
   NELMIN = 6
   IVDW = 12
   LWAVE = .FALSE.
   LCHARG = .FALSE.
   LREAL = Auto
   NCORE = 1
   LPLANE = .TRUE.
   ENCUT = 360.00 eV
   ISMEAR = 0
   SIGMA = 0.05

 POTCAR:    PAW Ni_GW 31Mar2010
 POTCAR:    PAW Al_GW 19Mar2012
 POTCAR:    PAW Ni_GW 31Mar2010
   VRHFIN =Ni:

   TITEL  = PAW Ni_GW 31Mar2010
   POMASS =   58.690; ZVAL   =   10.000    mass and valenz
   ENMAX  =  357.323; ENMIN  =  267.992 eV

 POTCAR:    PAW Al_GW 19Mar2012
   VRHFIN =Al: s2p1

   TITEL  = PAW Al_GW 19Mar2012
   POMASS =   26.982; ZVAL   =    3.000    mass and valenz
   ENMAX  =  240.300; ENMIN  =  180.225 eV

 Optimization of the real space projectors (new method)

 maximal supplied QI-value         = 16.25
 optimisation between [QCUT,QGAM] = [  9.59, 19.34] = [ 25.75,104.73] Ry
 Optimized for a Real-space Cutoff    1.46 Angstroem

   l    n(q)    QCUT    max X(q) W(low)/X(q) W(high)/X(q)  e(spline)
   2      7     9.588    94.285    0.33E-03    0.50E-03    0.16E-06
   2      7     9.588    92.549    0.33E-03    0.50E-03    0.16E-06
   0      8     9.588    17.118    0.28E-04    0.17E-03    0.57E-07
   0      8     9.588     8.062    0.24E-04    0.17E-03    0.61E-07
   1      8     9.588     4.910    0.48E-03    0.22E-03    0.79E-07
   1      8     9.588     3.344    0.32E-03    0.14E-03    0.56E-07
   3      7     9.588     5.513    0.55E-04    0.16E-03    0.12E-06
 Optimization of the real space projectors (new method)

 maximal supplied QI-value         = 18.90
 optimisation between [QCUT,QGAM] = [  9.64, 19.28] = [ 26.01,104.04] Ry
 Optimized for a Real-space Cutoff    1.46 Angstroem

   l    n(q)    QCUT    max X(q) W(low)/X(q) W(high)/X(q)  e(spline)
   0      8     9.638    11.519    0.10E-03    0.23E-03    0.86E-07
   0      8     9.638     5.834    0.72E-04    0.17E-03    0.68E-07
   1      8     9.638    10.132    0.33E-03    0.11E-03    0.32E-06
   1      8     9.638     3.004    0.25E-03    0.10E-03    0.24E-06
   2      7     9.638     3.169    0.30E-03    0.50E-03    0.35E-06
   2      7     9.638     1.607    0.15E-03    0.13E-03    0.12E-06
  PAW Ni_GW 31Mar2010                   :
  PAW Al_GW 19Mar2012                   :

 POSCAR: New structure
  positions in cartesian coordinates
 exchange correlation table for  LEXCH =        8
   RHO(1)=    0.500       N(1)  =     2000
   RHO(2)=  100.500       N(2)  =     4000

 VTST: version 4.1, (05/19/21)

 CHAIN: initializing optimizer

 OPT: Using VASP Dynamics algorithm
 CHAIN: Read ICHAIN             0

 POSCAR: New structure
  positions in cartesian coordinates

 ion  position               nearest neighbor table
   1  0.000  0.000  0.000- 126 2.51 130 2.51 146 2.51 150 2.51 226 2.51 230 2.51 246 2.51 250 2.51
                             6 2.90  21 2.90  26 2.90 101 2.90   2 2.90   5 2.90
   2  0.000  0.000  0.200- 127 2.51 147 2.51 227 2.51 247 2.51 226 2.51 146 2.51 246 2.51 126 2.51
                             3 2.90  27 2.90 102 2.90   1 2.90   7 2.90  22 2.90
   3  0.000  0.000  0.400- 127 2.51 128 2.51 147 2.51 148 2.51 227 2.51 228 2.51 247 2.51 248 2.51
                             2 2.90  28 2.90 103 2.90   4 2.90   8 2.90  23 2.90
   4  0.000  0.000  0.600- 128 2.51 129 2.51 148 2.51 149 2.51 228 2.51 229 2.51 248 2.51 249 2.51
                             5 2.90  29 2.90 104 2.90   3 2.90   9 2.90  24 2.90
   5  0.000  0.000  0.800- 129 2.51 149 2.51 229 2.51 249 2.51 130 2.51 230 2.51 150 2.51 250 2.51
                             4 2.90  30 2.90 105 2.90   1 2.90  10 2.90  25 2.90
   6  0.000  0.200  0.000- 131 2.51 135 2.51 231 2.51 235 2.51 226 2.51 230 2.51 126 2.51 130 2.51
                            11 2.90  31 2.90 106 2.90   7 2.90  10 2.90   1 2.90
   7  0.000  0.200  0.200- 132 2.51 232 2.51 127 2.51 227 2.51 231 2.51 131 2.51 226 2.51 126 2.51
                             8 2.90  12 2.90   2 2.90   6 2.90  32 2.90 107 2.90
   8  0.000  0.200  0.400- 132 2.51 133 2.51 232 2.51 233 2.51 227 2.51 228 2.51 127 2.51 128 2.51
                             7 2.90  13 2.90   9 2.90   3 2.90  33 2.90 108 2.90
   9  0.000  0.200  0.600- 133 2.51 134 2.51 233 2.51 234 2.51 228 2.51 229 2.51 128 2.51 129 2.51
                            10 2.90  14 2.90   4 2.90   8 2.90  34 2.90 109 2.90
  10  0.000  0.200  0.800- 134 2.51 234 2.51 135 2.51 229 2.51 129 2.51 235 2.51 130 2.51 230 2.51
                             9 2.90  15 2.90   5 2.90   6 2.90  35 2.90 110 2.90
  11  0.000  0.400  0.000- 131 2.51 135 2.51 136 2.51 140 2.51 231 2.51 235 2.51 236 2.51 240 2.51
                             6 2.90  36 2.90 111 2.90  12 2.90  15 2.90  16 2.90
  12  0.000  0.400  0.200- 132 2.51 137 2.51 232 2.51 237 2.51 231 2.51 136 2.51 236 2.51 131 2.51
                             7 2.90  13 2.90  11 2.90  17 2.90  37 2.90 112 2.90
  13  0.000  0.400  0.400- 132 2.51 133 2.51 137 2.51 138 2.51 232 2.51 233 2.51 237 2.51 238 2.51
                             8 2.90  12 2.90  14 2.90  18 2.90  38 2.90 113 2.90
  14  0.000  0.400  0.600- 133 2.51 134 2.51 138 2.51 139 2.51 233 2.51 234 2.51 238 2.51 239 2.51
                             9 2.90  15 2.90  13 2.90  19 2.90  39 2.90 114 2.90
  15  0.000  0.400  0.800- 134 2.51 139 2.51 234 2.51 239 2.51 135 2.51 235 2.51 140 2.51 240 2.51
                            10 2.90  14 2.90  11 2.90  20 2.90  40 2.90 115 2.90
  16  0.000  0.600  0.000- 136 2.51 140 2.51 141 2.51 145 2.51 236 2.51 240 2.51 241 2.51 245 2.51
                            21 2.90  41 2.90 116 2.90  17 2.90  20 2.90  11 2.90
  17  0.000  0.600  0.200- 137 2.51 142 2.51 237 2.51 242 2.51 236 2.51 141 2.51 241 2.51 136 2.51
                            18 2.90  22 2.90  12 2.90  16 2.90  42 2.90 117 2.90
  18  0.000  0.600  0.400- 137 2.51 138 2.51 142 2.51 143 2.51 237 2.51 238 2.51 242 2.51 243 2.51
                            17 2.90  23 2.90  19 2.90  13 2.90  43 2.90 118 2.90
  19  0.000  0.600  0.600- 138 2.51 139 2.51 143 2.51 144 2.51 238 2.51 239 2.51 243 2.51 244 2.51
                            20 2.90  24 2.90  14 2.90  18 2.90  44 2.90 119 2.90
  20  0.000  0.600  0.800- 139 2.51 144 2.51 239 2.51 244 2.51 140 2.51 240 2.51 145 2.51 245 2.51
                            19 2.90  25 2.90  15 2.90  16 2.90  45 2.90 120 2.90
  21  0.000  0.800  0.000- 141 2.51 145 2.51 241 2.51 245 2.51 146 2.51 150 2.51 246 2.51 250 2.51
                            16 2.90  46 2.90 121 2.90   1 2.90  22 2.90  25 2.90
  22  0.000  0.800  0.200- 142 2.51 242 2.51 147 2.51 241 2.51 141 2.51 247 2.51 246 2.51 146 2.51
                            17 2.90  23 2.90  21 2.90   2 2.90  47 2.90 122 2.90
  23  0.000  0.800  0.400- 142 2.51 143 2.51 242 2.51 243 2.51 147 2.51 148 2.51 247 2.51 248 2.51
                            18 2.90  22 2.90   3 2.90  24 2.90  48 2.90 123 2.90
  24  0.000  0.800  0.600- 143 2.51 144 2.51 243 2.51 244 2.51 148 2.51 149 2.51 248 2.51 249 2.51
                            19 2.90  25 2.90  23 2.90   4 2.90  49 2.90 124 2.90
  25  0.000  0.800  0.800- 144 2.51 244 2.51 149 2.51 145 2.51 245 2.51 249 2.51 150 2.51 250 2.51
                            20 2.90  24 2.90  21 2.90   5 2.90  50 2.90 125 2.90
  26  0.200  0.000  0.000- 151 2.51 155 2.51 171 2.51 175 2.51 126 2.51 130 2.51 146 2.51 150 2.51
                            51 2.90  46 2.90   1 2.90  27 2.90  30 2.90  31 2.90
  27  0.200  0.000  0.200- 152 2.51 172 2.51 151 2.51 127 2.51 171 2.51 147 2.51 146 2.51 126 2.51
                            28 2.90  52 2.90   2 2.90  32 2.90  47 2.90  26 2.90
  28  0.200  0.000  0.400- 152 2.51 153 2.51 172 2.51 173 2.51 127 2.51 128 2.51 147 2.51 148 2.51
                            27 2.90  53 2.90  29 2.90  33 2.90  48 2.90   3 2.90
  29  0.200  0.000  0.600- 153 2.51 154 2.51 173 2.51 174 2.51 128 2.51 129 2.51 148 2.51 149 2.51
                            30 2.90  54 2.90   4 2.90  34 2.90  49 2.90  28 2.90
  30  0.200  0.000  0.800- 154 2.51 174 2.51 129 2.51 155 2.51 149 2.51 175 2.51 130 2.51 150 2.51
                            29 2.90  55 2.90   5 2.90  35 2.90  50 2.90  26 2.90
  31  0.200  0.200  0.000- 156 2.51 160 2.51 151 2.51 155 2.51 131 2.51 135 2.51 126 2.51 130 2.51
                            36 2.90  56 2.90  32 2.90  35 2.90   6 2.90  26 2.90
  32  0.200  0.200  0.200- 157 2.51 152 2.51 156 2.51 132 2.51 131 2.51 127 2.51 151 2.51 126 2.51
                            57 2.90  33 2.90  37 2.90  31 2.90   7 2.90  27 2.90
  33  0.200  0.200  0.400- 157 2.51 158 2.51 152 2.51 153 2.51 132 2.51 133 2.51 127 2.51 128 2.51
                            58 2.90  32 2.90  38 2.90   8 2.90  34 2.90  28 2.90
  34  0.200  0.200  0.600- 158 2.51 159 2.51 153 2.51 154 2.51 133 2.51 134 2.51 128 2.51 129 2.51
                            59 2.90  35 2.90  39 2.90  33 2.90   9 2.90  29 2.90
  35  0.200  0.200  0.800- 159 2.51 154 2.51 134 2.51 160 2.51 155 2.51 135 2.51 129 2.51 130 2.51
                            60 2.90  34 2.90  40 2.90  31 2.90  10 2.90  30 2.90
  36  0.200  0.400  0.000- 156 2.51 160 2.51 161 2.51 165 2.51 131 2.51 135 2.51 136 2.51 140 2.51
                            31 2.90  61 2.90  37 2.90  40 2.90  41 2.90  11 2.90
  37  0.200  0.400  0.200- 157 2.51 162 2.51 156 2.51 132 2.51 161 2.51 137 2.51 136 2.51 131 2.51
                            62 2.90  32 2.90  38 2.90  36 2.90  12 2.90  42 2.90
  38  0.200  0.400  0.400- 157 2.51 158 2.51 162 2.51 163 2.51 132 2.51 133 2.51 137 2.51 138 2.51
                            63 2.90  33 2.90  37 2.90  13 2.90  39 2.90  43 2.90
  39  0.200  0.400  0.600- 158 2.51 159 2.51 163 2.51 164 2.51 133 2.51 134 2.51 138 2.51 139 2.51
                            64 2.90  34 2.90  40 2.90  38 2.90  14 2.90  44 2.90
  40  0.200  0.400  0.800- 159 2.51 164 2.51 134 2.51 160 2.51 139 2.51 165 2.51 135 2.51 140 2.51
                            65 2.90  35 2.90  39 2.90  36 2.90  15 2.90  45 2.90
  41  0.200  0.600  0.000- 161 2.51 165 2.51 166 2.51 170 2.51 136 2.51 140 2.51 141 2.51 145 2.51
                            46 2.90  66 2.90  42 2.90  45 2.90  16 2.90  36 2.90
  42  0.200  0.600  0.200- 162 2.51 167 2.51 161 2.51 137 2.51 166 2.51 142 2.51 141 2.51 136 2.51
                            67 2.90  43 2.90  47 2.90  41 2.90  17 2.90  37 2.90
  43  0.200  0.600  0.400- 162 2.51 163 2.51 167 2.51 168 2.51 137 2.51 138 2.51 142 2.51 143 2.51
                            68 2.90  42 2.90  48 2.90  18 2.90  44 2.90  38 2.90
  44  0.200  0.600  0.600- 163 2.51 164 2.51 168 2.51 169 2.51 138 2.51 139 2.51 143 2.51 144 2.51
                            69 2.90  45 2.90  49 2.90  43 2.90  19 2.90  39 2.90
  45  0.200  0.600  0.800- 164 2.51 169 2.51 139 2.51 165 2.51 144 2.51 170 2.51 140 2.51 145 2.51
                            70 2.90  44 2.90  50 2.90  41 2.90  20 2.90  40 2.90
  46  0.200  0.800  0.000- 166 2.51 170 2.51 141 2.51 145 2.51 171 2.51 175 2.51 146 2.51 150 2.51
                            41 2.90  71 2.90  21 2.90  47 2.90  50 2.90  26 2.90
  47  0.200  0.800  0.200- 167 2.51 166 2.51 142 2.51 172 2.51 147 2.51 171 2.51 141 2.51 146 2.51
[...]
   -.115E-12 -.423E-13 -.391E-12   -.114E-12 -.355E-13 0.711E-13   -.290E-24 -.278E-24 -.124E-23   -.695E-12 -.517E-12 -.401E-12
   -.118E-12 -.651E-13 0.775E-11   -.128E-12 -.790E-13 -.445E-10   -.339E-24 -.588E-24 0.141E-23   -.445E-12 -.458E-12 0.723E-12
   -.123E-12 -.607E-13 -.367E-11   -.695E-13 0.651E-13 0.438E-10   -.220E-24 0.583E-24 -.246E-24   -.813E-12 -.632E-12 -.650E-13
   -.972E-13 -.165E-13 0.469E-11   -.137E-12 -.158E-12 -.438E-10   0.507E-25 0.788E-24 0.691E-24   -.131E-11 -.792E-12 0.302E-13
   -.632E-13 -.655E-13 -.682E-11   -.192E-12 0.000E+00 0.445E-10   0.471E-24 0.381E-24 -.659E-24   -.131E-11 -.680E-12 -.634E-12
   -.110E-12 0.801E-11 -.401E-12   -.342E-12 -.445E-10 0.364E-13   -.271E-24 0.866E-24 -.905E-24   -.593E-12 0.543E-12 -.235E-12
   -.104E-12 0.811E-11 0.783E-11   -.149E-12 -.446E-10 -.447E-10   -.315E-24 0.171E-23 0.795E-24   -.426E-12 0.619E-12 0.697E-12
   -.928E-13 0.787E-11 -.380E-11   -.435E-13 -.448E-10 0.439E-10   -.372E-24 0.866E-24 -.194E-24   -.723E-12 0.538E-12 -.254E-12
   -.934E-13 0.805E-11 0.519E-11   -.848E-13 -.447E-10 -.439E-10   -.216E-24 0.511E-24 0.156E-23   -.106E-11 0.383E-12 -.461E-13
   -.888E-13 0.824E-11 -.669E-11   0.417E-13 -.447E-10 0.447E-10   -.906E-24 0.577E-24 -.181E-24   -.102E-11 0.411E-12 -.475E-12
   -.125E-12 -.396E-11 -.383E-12   -.177E-12 0.437E-10 0.486E-13   -.146E-23 0.498E-24 -.105E-23   -.620E-12 0.104E-12 -.251E-12
   -.124E-12 -.406E-11 0.760E-11   -.355E-12 0.437E-10 -.447E-10   -.435E-24 0.536E-24 0.708E-24   -.485E-12 0.578E-13 0.699E-12
   -.102E-12 -.385E-11 -.360E-11   -.373E-12 0.437E-10 0.439E-10   0.229E-24 -.569E-24 -.627E-24   -.806E-12 0.190E-12 -.293E-12
   -.964E-13 -.380E-11 0.527E-11   -.209E-12 0.439E-10 -.439E-10   0.569E-24 -.172E-24 0.960E-24   -.111E-11 0.275E-12 -.128E-12
   -.117E-12 -.371E-11 -.657E-11   -.275E-12 0.439E-10 0.446E-10   0.121E-24 0.488E-24 -.565E-24   -.102E-11 0.185E-12 -.515E-12
   -.110E-12 0.426E-11 -.389E-12   -.288E-12 -.438E-10 0.364E-13   0.345E-24 0.249E-24 -.330E-24   -.779E-12 0.307E-13 -.350E-12
   -.131E-12 0.474E-11 0.778E-11   -.288E-12 -.440E-10 -.447E-10   -.188E-24 0.835E-24 -.191E-24   -.561E-12 -.362E-13 0.779E-12
   -.120E-12 0.485E-11 -.357E-11   -.154E-12 -.439E-10 0.439E-10   -.139E-24 0.401E-24 0.286E-24   -.952E-12 0.116E-12 -.747E-14
   -.107E-12 0.433E-11 0.480E-11   -.163E-12 -.440E-10 -.439E-10   -.142E-24 0.620E-24 0.811E-24   -.138E-11 0.318E-12 -.683E-13
   -.115E-12 0.458E-11 -.686E-11   -.915E-13 -.440E-10 0.447E-10   0.180E-24 0.315E-24 0.847E-24   -.129E-11 0.203E-12 -.653E-12
   -.111E-12 -.670E-11 -.417E-12   0.163E-12 0.446E-10 0.355E-13   -.824E-24 0.258E-25 0.223E-24   -.837E-12 -.587E-12 -.460E-12
   -.120E-12 -.658E-11 0.798E-11   -.444E-14 0.446E-10 -.447E-10   -.603E-24 0.827E-24 0.142E-23   -.560E-12 -.606E-12 0.818E-12
   -.154E-12 -.641E-11 -.349E-11   -.133E-12 0.447E-10 0.439E-10   0.226E-25 0.574E-24 0.194E-24   -.958E-12 -.657E-12 0.114E-12
   -.115E-12 -.673E-11 0.500E-11   -.143E-12 0.446E-10 -.439E-10   0.468E-24 0.562E-24 -.610E-24   -.150E-11 -.619E-12 -.609E-14
   -.108E-12 -.657E-11 -.667E-11   0.711E-13 0.446E-10 0.446E-10   0.564E-24 -.168E-24 -.275E-24   -.143E-11 -.562E-12 -.755E-12
   0.885E-11 -.944E-13 0.213E-11   -.444E-10 -.160E-13 0.444E-13   0.121E-26 -.843E-24 0.365E-24   0.931E-12 -.419E-12 -.546E-13
   0.887E-11 -.638E-13 0.888E-11   -.446E-10 -.746E-13 -.447E-10   0.445E-24 -.143E-23 0.237E-23   0.837E-12 -.430E-12 0.613E-12
   0.886E-11 -.526E-13 -.239E-11   -.445E-10 -.764E-13 0.439E-10   0.818E-25 -.775E-25 -.607E-24   0.745E-12 -.530E-12 -.384E-12
   0.887E-11 -.369E-13 0.169E-10   -.446E-10 -.164E-12 -.440E-10   0.424E-24 0.271E-24 0.362E-24   0.743E-12 -.559E-12 -.120E-12
   0.887E-11 -.935E-13 -.911E-12   -.445E-10 -.346E-13 0.446E-10   0.871E-24 0.278E-24 -.775E-25   0.839E-12 -.488E-12 -.313E-12
   0.885E-11 0.583E-11 0.228E-11   -.449E-10 -.447E-10 0.364E-13   -.829E-25 0.493E-24 -.349E-24   0.893E-12 0.607E-12 -.164E-13
   0.886E-11 0.822E-11 0.109E-10   -.451E-10 -.448E-10 -.448E-10   -.824E-24 0.569E-24 0.170E-23   0.792E-12 0.636E-12 0.598E-12
   0.885E-11 0.818E-11 -.684E-13   -.449E-10 -.448E-10 0.440E-10   0.523E-24 0.931E-24 -.213E-23   0.763E-12 0.603E-12 -.458E-12
   0.883E-11 0.819E-11 0.142E-10   -.450E-10 -.448E-10 -.440E-10   0.460E-24 0.246E-24 0.914E-24   0.839E-12 0.549E-12 -.102E-12
   0.885E-11 0.708E-11 -.206E-11   -.449E-10 -.448E-10 0.447E-10   -.316E-24 -.281E-24 -.717E-24   0.869E-12 0.595E-12 -.287E-12
   0.881E-11 -.551E-11 0.219E-11   -.449E-10 0.437E-10 0.511E-13   -.835E-24 0.843E-24 -.207E-24   0.101E-11 0.968E-13 -.455E-13
   0.883E-11 -.302E-11 0.109E-10   -.448E-10 0.439E-10 -.448E-10   -.665E-24 0.275E-24 0.998E-24   0.917E-12 0.986E-13 0.559E-12
   0.886E-11 -.430E-11 -.140E-11   -.448E-10 0.438E-10 0.439E-10   -.230E-25 -.365E-24 -.782E-24   0.832E-12 0.127E-12 -.521E-12
   0.884E-11 -.413E-11 0.133E-10   -.448E-10 0.439E-10 -.441E-10   -.303E-24 0.103E-24 0.125E-23   0.905E-12 0.146E-12 -.141E-12
   0.884E-11 -.413E-11 -.219E-11   -.448E-10 0.439E-10 0.447E-10   0.518E-24 -.470E-24 0.116E-24   0.974E-12 0.121E-12 -.288E-12
   0.884E-11 0.804E-11 0.463E-11   -.447E-10 -.440E-10 0.231E-13   0.522E-24 -.220E-24 -.438E-24   0.110E-11 -.331E-13 -.209E-13
   0.885E-11 0.762E-11 0.110E-10   -.449E-10 -.440E-10 -.448E-10   -.394E-24 -.352E-24 -.152E-24   0.104E-11 -.285E-13 0.669E-12
   0.888E-11 0.647E-11 -.103E-11   -.447E-10 -.440E-10 0.440E-10   -.326E-24 -.246E-24 0.633E-24   0.873E-12 0.769E-13 -.339E-12
   0.888E-11 0.759E-11 0.145E-10   -.448E-10 -.441E-10 -.440E-10   -.530E-24 0.824E-24 0.805E-24   0.855E-12 0.142E-12 -.115E-12
   0.886E-11 0.768E-11 -.852E-12   -.448E-10 -.440E-10 0.447E-10   -.402E-24 -.103E-23 0.258E-25   0.101E-11 0.491E-13 -.311E-12
   0.887E-11 -.696E-11 0.353E-11   -.449E-10 0.446E-10 0.373E-13   0.423E-24 -.821E-24 0.362E-24   0.102E-11 -.620E-12 -.819E-13
   0.886E-11 -.679E-11 0.987E-11   -.450E-10 0.447E-10 -.448E-10   -.907E-24 0.727E-24 0.123E-23   0.974E-12 -.635E-12 0.694E-12
   0.887E-11 -.680E-11 -.114E-11   -.448E-10 0.447E-10 0.440E-10   0.363E-24 0.258E-24 0.659E-24   0.803E-12 -.659E-12 -.310E-12
   0.890E-11 -.565E-11 0.146E-10   -.447E-10 0.447E-10 -.441E-10   -.820E-25 -.103E-24 -.152E-24   0.765E-12 -.654E-12 -.141E-12
   0.888E-11 -.571E-11 -.976E-12   -.449E-10 0.447E-10 0.447E-10   -.115E-24 -.582E-25 0.551E-24   0.912E-12 -.641E-12 -.402E-12
   -.400E-11 -.189E-13 -.692E-13   0.438E-10 -.828E-13 0.588E-13   0.840E-24 -.828E-25 0.129E-25   0.376E-12 -.649E-12 -.395E-12
   -.397E-11 -.532E-13 0.517E-11   0.438E-10 -.622E-14 -.447E-10   0.568E-24 -.220E-24 0.138E-23   0.508E-13 -.625E-12 0.507E-12
   -.396E-11 -.702E-13 -.479E-11   0.438E-10 0.944E-14 0.439E-10   -.175E-24 0.452E-24 -.937E-25   0.396E-12 -.668E-12 -.107E-12
   -.395E-11 -.811E-13 0.143E-11   0.438E-10 -.141E-12 -.439E-10   -.171E-24 -.297E-24 -.179E-24   0.888E-12 -.720E-12 0.983E-13
   -.404E-11 -.725E-13 -.101E-10   0.438E-10 -.733E-13 0.446E-10   -.276E-24 0.330E-24 -.112E-23   0.935E-12 -.709E-12 -.458E-12
   -.401E-11 0.523E-11 -.205E-12   0.436E-10 -.447E-10 0.342E-13   -.230E-24 0.113E-25 -.840E-24   0.229E-12 0.656E-12 -.320E-12
   -.400E-11 0.533E-11 0.519E-11   0.437E-10 -.448E-10 -.448E-10   -.219E-24 -.105E-24 0.624E-24   0.149E-13 0.719E-12 0.554E-12
   -.399E-11 0.518E-11 -.491E-11   0.436E-10 -.447E-10 0.440E-10   -.592E-24 -.905E-25 -.131E-23   0.301E-12 0.663E-12 -.212E-12
   -.398E-11 0.527E-11 0.150E-11   0.435E-10 -.447E-10 -.440E-10   0.313E-24 -.995E-24 0.106E-23   0.679E-12 0.565E-12 0.458E-13
   -.402E-11 0.523E-11 -.101E-10   0.438E-10 -.448E-10 0.447E-10   -.550E-24 0.155E-24 0.452E-25   0.655E-12 0.588E-12 -.435E-12
[...]
   -.322E-11 0.138E-11 -.226E-11   0.125E-10 0.725E-13 0.120E-10   0.145E-23 0.150E-23 -.174E-24   -.279E-12 0.622E-13 0.168E-12
   -.322E-11 0.934E-12 0.306E-13   0.125E-10 0.623E-13 0.345E-13   -.183E-24 -.624E-24 -.267E-25   -.386E-12 0.143E-12 -.960E-14
   -.322E-11 0.100E-11 0.247E-11   0.125E-10 0.101E-12 -.119E-10   0.701E-24 -.517E-25 -.131E-23   -.446E-12 0.161E-12 -.657E-13
   -.322E-11 0.893E-12 -.311E-11   0.126E-10 0.369E-13 0.122E-10   0.189E-24 -.717E-24 0.104E-23   -.371E-12 0.113E-12 -.171E-12
   -.323E-11 0.138E-11 0.356E-11   0.125E-10 -.119E-10 -.121E-10   -.448E-25 -.792E-24 0.102E-23   -.289E-12 -.583E-13 0.543E-13
   -.323E-11 0.720E-12 -.218E-11   0.124E-10 -.119E-10 0.120E-10   0.670E-24 -.365E-24 -.343E-24   -.290E-12 -.542E-13 0.211E-12
   -.323E-11 0.868E-12 0.556E-12   0.125E-10 -.119E-10 0.342E-13   -.447E-24 0.640E-24 0.103E-24   -.417E-12 -.155E-13 0.630E-13
   -.322E-11 0.234E-11 0.155E-11   0.124E-10 -.119E-10 -.119E-10   0.667E-24 0.543E-24 -.644E-24   -.498E-12 0.105E-13 -.963E-13
   -.323E-11 0.137E-11 -.313E-11   0.125E-10 -.119E-10 0.122E-10   -.795E-25 0.506E-24 0.735E-25   -.416E-12 -.264E-13 -.226E-12
   -.323E-11 -.246E-11 0.271E-11   0.125E-10 0.122E-10 -.122E-10   -.887E-24 0.291E-25 0.391E-25   -.228E-12 -.185E-12 0.517E-13
   -.324E-11 -.319E-11 -.185E-11   0.125E-10 0.123E-10 0.120E-10   -.849E-24 -.313E-24 -.711E-25   -.231E-12 -.205E-12 0.194E-12
   -.324E-11 -.299E-11 0.148E-12   0.125E-10 0.122E-10 0.320E-13   0.477E-24 -.200E-24 0.385E-24   -.369E-12 -.247E-12 0.779E-13
   -.322E-11 -.321E-11 0.256E-11   0.125E-10 0.122E-10 -.119E-10   0.490E-24 0.375E-24 -.797E-24   -.466E-12 -.233E-12 -.724E-13
   -.323E-11 -.312E-11 -.295E-11   0.125E-10 0.122E-10 0.122E-10   0.384E-25 -.401E-24 -.404E-24   -.374E-12 -.194E-12 -.248E-12
   0.856E-10 -.107E-09 0.424E-10   0.252E-10 0.896E-12 0.633E-12   0.532E-23 0.560E-23 0.578E-23   -.563E-11 -.977E-11 -.620E-11

 POSITION                                       TOTAL-FORCE (eV/Angst)
      0.00000      0.00000      0.00000        -0.000000     -0.000000     -0.000000
      0.00000      0.00000      2.90000        -0.000000     -0.000000      0.000000
      0.00000      0.00000      5.80000        -0.000000     -0.000000     -0.000000
      0.00000      0.00000      8.70000         0.000000     -0.000000      0.000000
      0.00000      0.00000     11.60000         0.000000     -0.000000     -0.000000
      0.00000      2.90000      0.00000         0.000000      0.000000      0.000000
      0.00000      2.90000      2.90000         0.000000      0.000000     -0.000000
      0.00000      2.90000      5.80000         0.000000      0.000000     -0.000000
      0.00000      2.90000      8.70000        -0.000000      0.000000      0.000000
      0.00000      2.90000     11.60000         0.000000      0.000000      0.000000
      0.00000      5.80000      0.00000         0.000000     -0.000000      0.000000
      0.00000      5.80000      2.90000         0.000000     -0.000000      0.000000
      0.00000      5.80000      5.80000         0.000000     -0.000000      0.000000
      0.00000      5.80000      8.70000        -0.000000      0.000000      0.000000
      0.00000      5.80000     11.60000        -0.000000     -0.000000     -0.000000
      0.00000      8.70000      0.00000         0.000000      0.000000      0.000000
      0.00000      8.70000      2.90000         0.000000      0.000000     -0.000000
      0.00000      8.70000      5.80000         0.000000      0.000000      0.000000
      0.00000      8.70000      8.70000        -0.000000      0.000000     -0.000000
      0.00000      8.70000     11.60000        -0.000000     -0.000000      0.000000
      0.00000     11.60000      0.00000         0.000000     -0.000000      0.000000
      0.00000     11.60000      2.90000         0.000000     -0.000000     -0.000000
      0.00000     11.60000      5.80000        -0.000000     -0.000000      0.000000
      0.00000     11.60000      8.70000        -0.000000     -0.000000     -0.000000
      0.00000     11.60000     11.60000         0.000000     -0.000000      0.000000
      2.90000      0.00000      0.00000         0.000000     -0.000000     -0.000000
      2.90000      0.00000      2.90000        -0.000000     -0.000000      0.000000
      2.90000      0.00000      5.80000        -0.000000     -0.000000     -0.000000
      2.90000      0.00000      8.70000        -0.000000     -0.000000      0.000000
      2.90000      0.00000     11.60000        -0.000000     -0.000000     -0.000000
      2.90000      2.90000      0.00000        -0.000000      0.000000      0.000000
      2.90000      2.90000      2.90000         0.000000      0.000000      0.000000
      2.90000      2.90000      5.80000        -0.000000      0.000000     -0.000000
      2.90000      2.90000      8.70000         0.000000      0.000000      0.000000
      2.90000      2.90000     11.60000        -0.000000     -0.000000      0.000000
      2.90000      5.80000      0.00000         0.000000      0.000000      0.000000
      2.90000      5.80000      2.90000         0.000000      0.000000     -0.000000
      2.90000      5.80000      5.80000        -0.000000     -0.000000     -0.000000
      2.90000      5.80000      8.70000        -0.000000      0.000000      0.000000
      2.90000      5.80000     11.60000        -0.000000     -0.000000     -0.000000
      2.90000      8.70000      0.00000        -0.000000     -0.000000      0.000000
      2.90000      8.70000      2.90000        -0.000000      0.000000     -0.000000
      2.90000      8.70000      5.80000        -0.000000     -0.000000      0.000000
      2.90000      8.70000      8.70000        -0.000000     -0.000000     -0.000000
      2.90000      8.70000     11.60000         0.000000      0.000000      0.000000
      2.90000     11.60000      0.00000         0.000000     -0.000000      0.000000
      2.90000     11.60000      2.90000        -0.000000     -0.000000     -0.000000
      2.90000     11.60000      5.80000        -0.000000     -0.000000      0.000000
      2.90000     11.60000      8.70000        -0.000000      0.000000     -0.000000
      2.90000     11.60000     11.60000        -0.000000     -0.000000      0.000000
      5.80000      0.00000      0.00000        -0.000000     -0.000000     -0.000000
      5.80000      0.00000      2.90000        -0.000000      0.000000      0.000000
      5.80000      0.00000      5.80000        -0.000000      0.000000     -0.000000
      5.80000      0.00000      8.70000         0.000000      0.000000      0.000000
      5.80000      0.00000     11.60000         0.000000      0.000000     -0.000000
      5.80000      2.90000      0.00000        -0.000000      0.000000     -0.000000
      5.80000      2.90000      2.90000        -0.000000      0.000000      0.000000
      5.80000      2.90000      5.80000         0.000000      0.000000     -0.000000
      5.80000      2.90000      8.70000        -0.000000      0.000000      0.000000
      5.80000      2.90000     11.60000        -0.000000     -0.000000     -0.000000
[...]
     13.05000      7.25000      1.45000         0.000000     -0.000000      0.000000
     13.05000      7.25000      4.35000         0.000000     -0.000000     -0.000000
     13.05000      7.25000      7.25000         0.000000     -0.000000     -0.000000
     13.05000      7.25000     10.15000         0.000000      0.000000      0.000000
     13.05000      7.25000     13.05000         0.000000      0.000000     -0.000000
     13.05000     10.15000      1.45000         0.000000      0.000000     -0.000000
     13.05000     10.15000      4.35000         0.000000      0.000000      0.000000
     13.05000     10.15000      7.25000         0.000000      0.000000      0.000000
     13.05000     10.15000     10.15000         0.000000      0.000000      0.000000
     13.05000     10.15000     13.05000         0.000000      0.000000      0.000000
     13.05000     13.05000      1.45000         0.000000      0.000000      0.000000
     13.05000     13.05000      4.35000         0.000000      0.000000      0.000000
     13.05000     13.05000      7.25000         0.000000      0.000000     -0.000000
     13.05000     13.05000     10.15000         0.000000      0.000000      0.000000
     13.05000     13.05000     13.05000         0.000000      0.000000      0.000000
    total drift:                                0.000000     -0.000000      0.000000

  FREE ENERGIE OF THE ION-ELECTRON SYSTEM (eV)
  free  energy   TOTEN  =     -1428.66835594 eV

  energy  without entropy=    -1428.56345966  energy(sigma->0) =    -1428.61590780

 stress matrix after NEB project (eV)
   -172.61177      0.00000      0.00000
      0.00000   -172.61177      0.00000
     -0.00000     -0.00000   -172.61177
  FORCES: max atom, RMS     0.000000    0.000000
  FORCE total and by dimension    0.000000    0.000000
  Stress total and by dimension  298.972357  172.611771