 vasp.6.2.1 16May21 (build Jun 16 2021 03:23:30) complex
 executed on             LinuxPGI date 2022.04.25  11:32:51

 INCAR:
   SYSTEM = NiAl
   ISTART = 0
   EDIFF = 5E-6
   NELMIN = 6
   ISIF = 0
   IVDW = 12
   LWAVE = .FALSE.
   LCHARG = .FALSE.
   LREAL = Auto
   NCORE = 1
   LPLANE = .TRUE.
   ENCUT = 360.00 eV
   ISMEAR = 0
   SIGMA = 0.05

 POTCAR:    PAW Al_GW 19Mar2012
 POTCAR:    PAW O_GW 19Mar2012
 POTCAR:    PAW Al_GW 19Mar2012
   VRHFIN =Al: s2p1

   TITEL  = PAW Al_GW 19Mar2012
   POMASS =   26.982; ZVAL   =    3.000    mass and valenz
   ENMAX  =  240.300; ENMIN  =  180.225 eV

 POTCAR:    PAW O_GW 19Mar2012
   VRHFIN =O: s2p4

   TITEL  = PAW O_GW 19Mar2012
   POMASS =   16.000; ZVAL   =    6.000    mass and valenz
   ENMAX  =  434.431; ENMIN  =  325.824 eV

 Optimization of the real space projectors (new method)

 maximal supplied QI-value         = 18.90
 optimisation between [QCUT,QGAM] = [  9.64, 19.28] = [ 26.01,104.04] Ry
 Optimized for a Real-space Cutoff    1.46 Angstroem

   l    n(q)    QCUT    max X(q) W(low)/X(q) W(high)/X(q)  e(spline)
   0      8     9.638    11.519    0.10E-03    0.23E-03    0.86E-07
   0      8     9.638     5.834    0.72E-04    0.17E-03    0.68E-07
   1      8     9.638    10.132    0.33E-03    0.11E-03    0.32E-06
   1      8     9.638     3.004    0.25E-03    0.10E-03    0.24E-06
   2      7     9.638     3.169    0.30E-03    0.50E-03    0.35E-06
   2      7     9.638     1.607    0.15E-03    0.13E-03    0.12E-06
 Optimization of the real space projectors (new method)

 maximal supplied QI-value         = 23.62
 optimisation between [QCUT,QGAM] = [  9.68, 19.37] = [ 26.27,105.06] Ry
 Optimized for a Real-space Cutoff    2.14 Angstroem

   l    n(q)    QCUT    max X(q) W(low)/X(q) W(high)/X(q)  e(spline)
   0     13     9.685   116.464    0.15E-03    0.15E-03    0.47E-05
   0     13     9.685   116.329    0.15E-03    0.15E-03    0.46E-05
   0     13     9.685     0.942    0.20E-04    0.50E-04    0.17E-05
   1     12     9.685    29.046    0.36E-03    0.11E-02    0.25E-04
   1     12     9.685    24.247    0.38E-03    0.11E-02    0.26E-04
   1     12     9.685     2.381    0.13E-03    0.38E-03    0.78E-05
   2     12     9.685     2.237    0.60E-05    0.28E-04    0.14E-05
   2     12     9.685     1.850    0.17E-04    0.70E-04    0.25E-05
  PAW Al_GW 19Mar2012                   :
  PAW O_GW 19Mar2012                    :

 POSCAR: New structure
  positions in cartesian coordinates
 exchange correlation table for  LEXCH =        8
   RHO(1)=    0.500       N(1)  =     2000
   RHO(2)=  100.500       N(2)  =     4000

 VTST: version 4.1, (05/19/21)

 CHAIN: initializing optimizer

 OPT: Using VASP Dynamics algorithm
 CHAIN: Read ICHAIN             0

 POSCAR: New structure
  positions in cartesian coordinates

 ion  position               nearest neighbor table
   1  0.444  0.444  0.079-
   2  0.444  0.778  0.079-
   3  0.444  0.111  0.079-
   4  0.778  0.444  0.079-
   5  0.778  0.778  0.079-
   6  0.778  0.111  0.079-
   7  0.111  0.444  0.079-
   8  0.111  0.778  0.079-
   9  0.111  0.111  0.079-
  10  0.556  0.556  0.157-
  11  0.556  0.889  0.157-
  12  0.556  0.222  0.157-
  13  0.889  0.556  0.157-
  14  0.889  0.889  0.157-
  15  0.889  0.222  0.157-
  16  0.222  0.556  0.157-
  17  0.222  0.889  0.157-
  18  0.222  0.222  0.157-
  19  0.667  0.667  0.234-
  20  0.667  0.000  0.234-
  21  0.667  0.333  0.234-
  22  0.000  0.667  0.234-
  23  0.000  0.000  0.234-
  24  0.000  0.333  0.234-
  25  0.333  0.667  0.234-
  26  0.333  0.000  0.234-
  27  0.333  0.333  0.234-
  28  0.778  0.778  0.312-
  29  0.778  0.111  0.312-
  30  0.778  0.444  0.312-
  31  0.111  0.778  0.312-
  32  0.111  0.111  0.312-
  33  0.111  0.444  0.312-
  34  0.444  0.778  0.312-
  35  0.444  0.111  0.312-
  36  0.444  0.444  0.312-
  37  0.889  0.889  0.390-
  38  0.889  0.222  0.390-
  39  0.889  0.556  0.390-
  40  0.222  0.889  0.390-
  41  0.222  0.222  0.390-
  42  0.222  0.556  0.390-
  43  0.556  0.889  0.390-
  44  0.556  0.222  0.390-
  45  0.556  0.556  0.390-
  46  0.000  0.000  0.466-
  47  0.000  0.333  0.466-
  48  0.000  0.667  0.466-
  49  0.333  0.000  0.466-
  50  0.333  0.333  0.466-
  51  0.333  0.667  0.466-
  52  0.667  0.000  0.466-
  53  0.667  0.333  0.466-
  54  0.667  0.667  0.466-
  55  0.111  0.111  0.545-
  56  0.111  0.444  0.545-
  57  0.111  0.778  0.545-
  58  0.444  0.111  0.545-
  59  0.444  0.444  0.545-
  60  0.444  0.778  0.545-
[...]
 238  0.333  0.833  0.466-
 239  0.333  0.167  0.466-
 240  0.333  0.500  0.466-
 241  0.667  0.833  0.466-
 242  0.667  0.167  0.466-
 243  0.667  0.500  0.466-
 244  0.111  0.944  0.545-
 245  0.111  0.278  0.545-
 246  0.111  0.611  0.545-
 247  0.444  0.944  0.545-
 248  0.444  0.278  0.545-
 249  0.444  0.611  0.545-
 250  0.778  0.944  0.545-
 251  0.778  0.278  0.545-
 252  0.778  0.611  0.545-
 253  0.340  0.487  0.618- 254 1.25
 254  0.382  0.402  0.618- 253 1.25

  LATTYP: Found a hexagonal cell.
 ALAT       =    17.1805734625
 C/A-ratio  =     1.7461582447

  Lattice vectors:

 A1 = (   0.0000000000,   8.5902867312,  14.8788130701)
 A2 = (   0.0000000000, -17.1805734625,   0.0000000000)
 A3 = (  30.0000000000,   0.0000000000,   0.0000000000)

Analysis of symmetry for initial positions (statically):
 Subroutine PRICEL returns:
 Original cell was already a primitive cell.

 Routine SETGRP: Setting up the symmetry group for a
 hexagonal supercell.

 Subroutine GETGRP returns: Found  2 space group operations
 (whereof  1 operations were pure point group operations)
 out of a pool of 24 trial point group operations.

The static configuration has the point symmetry C_1 .
 The point group associated with its full space group is C_1h.

Analysis of symmetry for dynamics (positions and initial velocities):
 Subroutine PRICEL returns:
 Original cell was already a primitive cell.

 Routine SETGRP: Setting up the symmetry group for a
 hexagonal supercell.

 Subroutine GETGRP returns: Found  2 space group operations
 (whereof  1 operations were pure point group operations)
 out of a pool of 24 trial point group operations.

The dynamic configuration has the point symmetry C_1 .
 The point group associated with its full space group is C_1h.

 Subroutine INISYM returns: Found  2 space group operations
 (whereof  1 operations are pure point group operations),
 and found     1 'primitive' translations

                                     Primitive cell

  volume of cell :    7668.7962

  direct lattice vectors                    reciprocal lattice vectors
     0.000000000-17.180573462  0.000000000     0.000000000 -0.058205275  0.033604831
     0.000000000 -8.590286731-14.878813070     0.000000000  0.000000000 -0.067209662
    30.000000000  0.000000000  0.000000000     0.033333333  0.000000000  0.000000000

  length of vectors
    17.180573462 17.180573462 30.000000000     0.067209662  0.067209662  0.033333333

  position of ions in fractional coordinates (direct lattice)
     0.444444557  0.444444726  0.078734667
     0.444444185  0.777777767  0.078734667
     0.444444684  0.111111014  0.078734667
     0.777777435  0.444444726  0.078734667
     0.777777645  0.777777767  0.078734667
     0.777777562  0.111111014  0.078734667
     0.111111097  0.444444726  0.078734667
     0.111111307  0.777777767  0.078734667
     0.111111223  0.111111014  0.078734667
     0.555555199  0.555555740  0.157026000
     0.555555408  0.888888780  0.157026000
     0.555555907  0.222222027  0.157026000
     0.888888659  0.555555740  0.157026000
     0.888888869  0.888888780  0.157026000
     0.888888785  0.222222027  0.157026000
     0.222222320  0.555555740  0.157026000
     0.222222530  0.888888780  0.157026000
     0.222222447  0.222222027  0.157026000
     0.666666422  0.666666753  0.233757333
     0.666666920  0.000000000  0.233757333
     0.666666548  0.333333041  0.233757333
     0.000000084  0.666666753  0.233757333
     0.000000000  0.000000000  0.233757333
     0.000000210  0.333333041  0.233757333
     0.333333544  0.666666753  0.233757333
     0.333333460  0.000000000  0.233757333
     0.333333670  0.333333041  0.233757333
     0.777777645  0.777777767  0.311730667
     0.777777562  0.111111014  0.311730667
     0.777777435  0.444444726  0.311730667
     0.111111307  0.777777767  0.311730667
     0.111111223  0.111111014  0.311730667
     0.111111097  0.444444726  0.311730667
     0.444444185  0.777777767  0.311730667
     0.444444684  0.111111014  0.311730667
     0.444444557  0.444444726  0.311730667
     0.888888869  0.888888780  0.389704000
     0.888888785  0.222222027  0.389704000
     0.888888659  0.555555740  0.389704000
     0.222222530  0.888888780  0.389704000
     0.222222447  0.222222027  0.389704000
     0.222222320  0.555555740  0.389704000
     0.555555408  0.888888780  0.389704000
     0.555555907  0.222222027  0.389704000
     0.555555199  0.555555740  0.389704000
     0.000000000  0.000000000  0.466435333
     0.000000210  0.333333041  0.466435333
     0.000000084  0.666666753  0.466435333
     0.333333460  0.000000000  0.466435333
     0.333333670  0.333333041  0.466435333
     0.333333544  0.666666753  0.466435333
     0.666666920  0.000000000  0.466435333
     0.666666548  0.333333041  0.466435333
     0.666666422  0.666666753  0.466435333
     0.111111223  0.111111014  0.544726667
     0.111111097  0.444444726  0.544726667
     0.111111307  0.777777767  0.544726667
     0.444444684  0.111111014  0.544726667
     0.444444557  0.444444726  0.544726667
     0.444444185  0.777777767  0.544726667
[...]
     0.333333148  0.500000233  0.466435333
     0.666666818  0.833333273  0.466435333
     0.666666734  0.166666520  0.466435333
     0.666666608  0.500000233  0.466435333
     0.111111121  0.944444287  0.544726667
     0.111111037  0.277777534  0.544726667
     0.111110911  0.611111246  0.544726667
     0.444444581  0.944444287  0.544726667
     0.444444497  0.277777534  0.544726667
     0.444444371  0.611111246  0.544726667
     0.777778041  0.944444287  0.544726667
     0.777777958  0.277777534  0.544726667
     0.777777831  0.611111246  0.544726667
     0.340034287  0.486597954  0.618000000
     0.382174939  0.402317038  0.618000000

  ion indices of the primitive-cell ions
   primitive index   ion index
                 1           1
                 2           2
                 3           3
                 4           4
                 5           5
                 6           6
                 7           7
                 8           8
                 9           9
                10          10
                11          11
                12          12
                13          13
                14          14
                15          15
                16          16
                17          17
                18          18
                19          19
                20          20
                21          21
                22          22
                23          23
                24          24
                25          25
                26          26
                27          27
                28          28
                29          29
[...]
   0.313E+03 0.985E-01 -.609E-02   -.312E+03 -.892E-01 0.328E-03   -.917E+00 -.571E-02 0.178E-02   0.173E-03 -.561E-05 -.301E-05
   0.313E+03 0.730E-01 0.704E-01   -.312E+03 -.865E-01 -.848E-01   -.830E+00 0.116E-01 0.326E-02   0.123E-03 -.517E-05 -.498E-05
   0.313E+03 -.308E-01 -.141E+00   -.312E+03 0.441E-01 0.161E+00   -.836E+00 -.423E-02 -.946E-02   0.134E-03 0.599E-05 0.134E-04
   0.313E+03 0.832E-01 -.181E-01   -.312E+03 -.867E-01 0.301E-03   -.840E+00 0.433E-03 0.164E-01   0.126E-03 -.862E-05 -.102E-05
   0.313E+03 -.532E-01 0.959E-02   -.312E+03 0.423E-01 -.933E-02   -.838E+00 -.311E-02 0.513E-02   0.112E-03 0.113E-05 0.103E-04
   0.313E+03 0.904E-01 -.728E-01   -.312E+03 -.865E-01 0.847E-01   -.825E+00 -.702E-02 -.316E-02   0.119E-03 -.167E-04 0.770E-05
   0.313E+03 -.176E+00 0.118E-01   -.312E+03 0.176E+00 0.361E-03   -.839E+00 0.633E-03 -.551E-02   0.146E-03 0.133E-04 -.129E-05
   0.313E+03 -.368E-01 0.152E+00   -.312E+03 0.441E-01 -.161E+00   -.826E+00 -.134E-02 -.142E-02   0.133E-03 0.234E-05 -.167E-04
   0.313E+03 -.536E-01 0.638E-02   -.312E+03 0.423E-01 0.927E-02   -.836E+00 0.107E-01 -.720E-02   0.110E-03 0.789E-05 0.322E-05
   0.211E+03 0.182E+00 0.763E-01   -.211E+03 -.165E+00 -.629E-01   -.166E+00 -.173E-01 -.745E-02   0.711E-04 0.291E-05 0.603E-05
   0.211E+03 0.471E-02 -.501E-01   -.211E+03 -.142E-01 0.509E-01   -.182E+00 0.313E-02 0.585E-02   0.621E-04 0.136E-06 0.645E-05
   0.211E+03 0.623E-01 -.158E+00   -.211E+03 -.675E-01 0.154E+00   -.187E+00 0.770E-02 -.304E-02   0.832E-04 0.501E-05 -.129E-04
   0.211E+03 -.776E-01 0.427E-01   -.211E+03 0.809E-01 -.319E-01   -.174E+00 -.117E-02 -.880E-02   0.611E-04 0.186E-05 0.468E-05
   0.211E+03 -.375E-01 0.216E-01   -.211E+03 0.297E-01 -.335E-01   -.147E+00 0.609E-02 0.758E-02   0.529E-04 -.368E-05 0.391E-05
   0.211E+03 0.586E-01 -.440E-01   -.211E+03 -.656E-01 0.389E-01   -.158E+00 0.395E-03 0.334E-02   0.621E-04 -.515E-05 -.145E-05
   0.212E+03 -.935E-01 0.120E+00   -.211E+03 0.838E-01 -.945E-01   -.233E+00 0.110E-01 -.137E-01   0.908E-04 -.607E-05 0.135E-04
   0.211E+03 0.288E-01 0.989E-01   -.211E+03 -.154E-01 -.118E+00   -.141E+00 -.909E-02 0.121E-01   0.541E-04 0.528E-05 -.184E-05
   0.211E+03 -.114E+00 -.980E-01   -.211E+03 0.133E+00 0.962E-01   -.130E+00 -.133E-01 0.647E-04   0.685E-04 0.528E-05 -.790E-05
   0.107E+03 0.123E+00 0.785E-01   -.107E+03 -.129E+00 -.767E-01   0.169E+00 0.521E-02 -.610E-02   -.483E-04 -.303E-05 0.737E-05
   0.107E+03 0.240E-01 -.227E+00   -.107E+03 -.321E-01 0.235E+00   0.179E+00 0.151E-01 -.434E-02   -.437E-04 0.756E-05 -.581E-05
   0.107E+03 0.345E+00 -.129E+00   -.107E+03 -.336E+00 0.128E+00   0.175E+00 0.391E-02 -.496E-02   -.490E-04 0.513E-05 -.810E-05
   0.107E+03 -.255E+00 0.183E+00   -.107E+03 0.269E+00 -.195E+00   0.177E+00 -.129E-01 0.144E-01   -.555E-04 -.244E-05 0.133E-04
   0.107E+03 0.784E-02 0.794E-01   -.107E+03 -.267E-01 -.100E+00   0.169E+00 0.110E-01 0.817E-02   -.562E-04 -.592E-05 -.144E-04
   0.107E+03 -.138E+00 -.597E-01   -.107E+03 0.161E+00 0.623E-01   0.166E+00 -.156E-01 -.255E-02   -.407E-04 0.458E-05 -.206E-05
   0.107E+03 0.144E+00 0.327E+00   -.107E+03 -.139E+00 -.318E+00   0.184E+00 -.345E-02 0.547E-02   -.596E-04 0.766E-05 0.222E-04
   0.107E+03 -.627E-01 -.605E-01   -.107E+03 0.589E-01 0.667E-01   0.172E+00 -.201E-02 -.638E-02   -.507E-04 -.730E-06 -.897E-05
   0.107E+03 -.175E+00 -.213E+00   -.108E+03 0.175E+00 0.197E+00   0.192E+00 -.277E-02 0.543E-02   -.560E-04 -.101E-04 -.191E-04
   0.432E+01 -.188E+00 0.487E-01   -.429E+01 0.196E+00 -.459E-01   -.256E-01 -.849E-03 -.192E-02   -.593E-04 0.102E-04 0.370E-05
   0.465E+01 0.407E+00 -.413E+00   -.466E+01 -.427E+00 0.427E+00   0.114E-01 0.219E-01 -.177E-01   -.642E-04 -.512E-05 -.901E-05
   0.453E+01 0.421E+00 0.505E-02   -.453E+01 -.428E+00 0.376E-03   -.169E-02 0.240E-02 -.526E-02   -.640E-04 -.940E-05 0.851E-05
   0.508E+01 -.222E+00 0.831E+00   -.509E+01 0.232E+00 -.832E+00   0.263E-02 -.124E-01 0.503E-02   -.811E-04 0.832E-06 0.496E-05
   0.430E+01 -.193E+00 -.718E-01   -.429E+01 0.196E+00 0.457E-01   -.111E-01 0.228E-02 0.108E-01   -.610E-04 0.643E-05 -.226E-04
   0.537E+01 -.957E+00 -.831E-03   -.540E+01 0.937E+00 0.460E-03   0.314E-01 0.499E-04 0.807E-03   -.808E-04 0.721E-05 0.697E-05
   0.464E+01 0.415E+00 0.410E+00   -.466E+01 -.427E+00 -.427E+00   0.192E-01 0.147E-01 0.157E-01   -.655E-04 -.104E-04 0.391E-05
   0.508E+01 -.227E+00 -.829E+00   -.509E+01 0.232E+00 0.832E+00   0.223E-02 -.127E-01 -.547E-02   -.762E-04 -.144E-05 0.120E-05
   0.643E+01 0.486E+00 -.747E-02   -.642E+01 -.515E+00 0.437E-03   0.121E-01 0.234E-01 0.616E-02   -.109E-03 0.320E-05 0.340E-05
   -.984E+02 -.345E+00 0.422E+00   0.986E+02 0.347E+00 -.409E+00   -.163E+00 -.114E-01 -.150E-01   -.337E-04 0.108E-04 -.542E-05
   -.986E+02 0.735E+00 -.431E+00   0.988E+02 -.746E+00 0.425E+00   -.164E+00 0.148E-01 -.129E-02   -.432E-04 -.147E-04 -.560E-05
   -.984E+02 -.980E+00 0.332E+00   0.985E+02 0.967E+00 -.344E+00   -.166E+00 -.257E-02 0.163E-01   -.447E-04 0.125E-04 0.258E-05
   -.981E+02 0.211E+00 0.144E+01   0.982E+02 -.225E+00 -.144E+01   -.155E+00 0.111E-01 0.651E-02   -.408E-04 -.954E-05 -.200E-04
   -.972E+02 -.174E+01 -.128E+01   0.973E+02 0.176E+01 0.129E+01   -.169E+00 -.177E-01 -.945E-02   -.562E-04 0.269E-04 0.610E-05
   -.935E+02 -.145E+01 0.160E+01   0.937E+02 0.144E+01 -.161E+01   -.217E+00 -.134E-01 0.188E-01   -.913E-04 0.145E-04 -.818E-06
   -.987E+02 0.121E+00 -.559E+00   0.988E+02 -.126E+00 0.567E+00   -.166E+00 0.430E-02 -.220E-01   -.354E-04 -.409E-05 0.106E-04
   -.952E+02 0.105E+01 -.237E+01   0.954E+02 -.106E+01 0.238E+01   -.148E+00 0.109E-01 -.340E-01   -.788E-04 -.145E-04 0.166E-04
   -.964E+02 0.231E+01 0.867E+00   0.966E+02 -.233E+01 -.882E+00   -.138E+00 0.289E-01 0.213E-01   -.603E-04 -.298E-04 0.938E-06
   -.205E+03 0.215E+00 0.115E+01   0.205E+03 -.223E+00 -.117E+01   0.154E+00 0.411E-02 0.118E-01   -.108E-03 -.218E-05 -.273E-04
   -.205E+03 -.209E+01 -.693E+00   0.204E+03 0.209E+01 0.703E+00   0.170E+00 -.680E-02 -.719E-02   -.126E-03 0.217E-04 0.105E-04
   -.202E+03 -.428E+01 0.312E+01   0.202E+03 0.427E+01 -.312E+01   0.191E+00 0.738E-02 -.176E-03   -.130E-03 0.458E-04 -.237E-04
   -.205E+03 -.726E+00 -.880E+00   0.205E+03 0.740E+00 0.895E+00   0.162E+00 -.131E-01 -.206E-01   -.113E-03 0.636E-05 0.609E-05
   -.191E+03 -.504E+01 -.561E+01   0.191E+03 0.504E+01 0.552E+01   0.886E-01 0.146E-01 0.814E-01   -.195E-03 0.389E-04 0.324E-04
   -.197E+03 0.317E+01 0.699E+01   0.197E+03 -.315E+01 -.699E+01   0.201E+00 -.145E-01 0.225E-01   -.162E-03 -.323E-04 -.467E-04
   -.204E+03 0.534E+00 -.319E+01   0.204E+03 -.540E+00 0.320E+01   0.162E+00 0.467E-02 0.744E-02   -.118E-03 -.852E-05 0.358E-04
   -.200E+03 0.607E+01 -.227E+01   0.200E+03 -.610E+01 0.228E+01   0.191E+00 0.205E-01 -.152E-01   -.146E-03 -.527E-04 0.150E-04
   -.205E+03 0.156E+01 0.859E+00   0.205E+03 -.156E+01 -.868E+00   0.152E+00 0.104E-01 0.698E-02   -.115E-03 -.166E-04 -.930E-05
   -.311E+03 -.147E+01 -.392E+00   0.310E+03 0.147E+01 0.404E+00   0.839E+00 -.129E-01 -.137E-01   -.128E-03 0.137E-04 -.543E-06
   -.303E+03 -.169E+02 0.281E-02   0.302E+03 0.169E+02 0.105E-02   0.886E+00 -.466E-01 -.242E-02   -.141E-03 0.101E-03 0.209E-05
   -.306E+03 -.353E+01 0.119E+02   0.305E+03 0.355E+01 -.120E+02   0.853E+00 -.103E-01 0.355E-01   -.121E-03 0.268E-04 -.778E-04
   -.306E+03 -.354E+01 -.120E+02   0.305E+03 0.355E+01 0.120E+02   0.863E+00 -.967E-03 -.131E-01   -.123E-03 0.240E-04 0.726E-04
   -.257E+03 0.367E+02 0.403E-03   0.254E+03 -.370E+02 0.436E-02   0.234E+01 0.339E+00 -.342E-02   -.280E-03 -.149E-03 0.656E-05
   -.309E+03 0.438E+01 0.456E+01   0.308E+03 -.438E+01 -.456E+01   0.854E+00 0.324E-02 0.455E-02   -.124E-03 -.362E-04 -.294E-04
[...]
   -.205E+03 0.108E-04 -.679E+00   0.205E+03 0.474E-04 0.676E+00   0.142E+00 -.108E-18 -.207E-02   -.110E-03 0.805E-08 0.128E-04
   -.201E+03 0.338E+01 -.475E+01   0.201E+03 -.343E+01 0.475E+01   0.173E+00 0.375E-01 0.545E-02   -.135E-03 -.359E-04 0.370E-04
   -.203E+03 0.454E+01 0.671E+00   0.203E+03 -.455E+01 -.687E+00   0.182E+00 0.109E-01 0.109E-01   -.128E-03 -.407E-04 -.217E-05
   -.310E+03 0.960E-04 0.431E+01   0.309E+03 -.815E-04 -.430E+01   0.838E+00 0.347E-17 -.141E-01   -.121E-03 0.209E-07 -.396E-04
   -.309E+03 -.692E+01 -.299E+01   0.308E+03 0.693E+01 0.298E+01   0.844E+00 -.178E-01 -.597E-03   -.127E-03 0.459E-04 0.190E-04
   -.299E+03 -.165E+02 0.133E+02   0.299E+03 0.164E+02 -.133E+02   0.898E+00 0.696E-01 -.348E-01   -.147E-03 0.104E-03 -.709E-04
   -.310E+03 -.302E+00 -.210E+01   0.309E+03 0.300E+00 0.210E+01   0.843E+00 -.791E-04 -.292E-02   -.124E-03 -.813E-06 0.160E-04
   -.280E+03 -.188E-04 -.332E+02   0.278E+03 0.944E-04 0.335E+02   0.168E+01 0.000E+00 -.404E+00   -.216E-03 -.376E-07 0.159E-03
   -.299E+03 0.165E+02 0.133E+02   0.299E+03 -.164E+02 -.133E+02   0.898E+00 -.696E-01 -.348E-01   -.147E-03 -.104E-03 -.708E-04
   -.310E+03 0.302E+00 -.210E+01   0.309E+03 -.300E+00 0.210E+01   0.843E+00 0.791E-04 -.292E-02   -.124E-03 0.792E-06 0.160E-04
   -.309E+03 0.692E+01 -.299E+01   0.308E+03 -.693E+01 0.298E+01   0.844E+00 0.178E-01 -.597E-03   -.127E-03 -.459E-04 0.190E-04
   -.311E+03 -.486E-04 0.101E+01   0.310E+03 0.208E-04 -.102E+01   0.838E+00 -.390E-17 0.118E-01   -.126E-03 0.351E-07 -.117E-04
   -.609E+03 -.708E-02 0.268E+03   0.620E+03 0.932E-03 -.329E+03   -.104E+02 0.000E+00 0.558E+02   0.246E-03 0.321E-06 0.207E-04
   -.609E+03 0.545E-03 -.268E+03   0.620E+03 -.797E-03 0.329E+03   -.109E+02 0.000E+00 -.557E+02   0.267E-03 -.373E-06 -.262E-03
   0.163E+02 -.758E-04 -.354E+00   0.716E-11 -.401E-13 0.000E+00   -.162E+02 0.343E-16 0.350E+00   -.873E-02 -.537E-07 -.242E-03

 POSITION                                       TOTAL-FORCE (eV/Angst)
      2.36204    -11.45372     -6.61281         0.083221      0.003485     -0.003947
      2.36204    -14.31714    -11.57241         0.095996     -0.001833     -0.011130
      2.36204     -8.59029     -1.65320         0.103834      0.008900      0.010717
      2.36204    -17.18057     -6.61281         0.097363     -0.002957     -0.001469
      2.36204    -20.04400    -11.57241         0.088722     -0.014040      0.005362
      2.36204    -14.31714     -1.65320         0.089238     -0.002984      0.008753
      2.36204     -5.72686     -6.61281         0.095656      0.000325      0.006677
      2.36204     -8.59029    -11.57241         0.090205      0.005857     -0.010186
      2.36204     -2.86343     -1.65320         0.091647     -0.000638      0.008462
      4.71078    -14.31714     -8.26601         0.052949     -0.000513      0.005997
      4.71078    -17.18057    -13.22561         0.046849     -0.006439      0.006763
      4.71078    -11.45372     -3.30640         0.052328      0.002403     -0.007254
      4.71078    -20.04400     -8.26601         0.042256      0.002249      0.002032
      4.71078    -22.90743    -13.22561         0.039963     -0.001619     -0.004293
      4.71078    -17.18057     -3.30640         0.048074     -0.006599     -0.001740
      4.71078     -8.59029     -8.26601         0.043182      0.001145      0.012263
      4.71078    -11.45372    -13.22561         0.043298      0.004193     -0.007131
      4.71078     -5.72686     -3.30640         0.050083      0.005778     -0.001733
      7.01272    -17.18057     -9.91921         0.014445     -0.001699     -0.004295
      7.01272    -11.45372      0.00000         0.012032      0.006931      0.003536
      7.01272    -14.31714     -4.95960         0.012232      0.013493     -0.005450
      7.01272     -5.72686     -9.91921         0.017790      0.000803      0.002113
      7.01272      0.00000      0.00000         0.011625     -0.007842     -0.012819
      7.01272     -2.86343     -4.95960         0.010174      0.007440      0.000011
      7.01272    -11.45372     -9.91921         0.018558      0.001070      0.014508
      7.01272     -5.72686      0.00000         0.002428     -0.005674     -0.000136
      7.01272     -8.59029     -4.95960         0.014176     -0.003470     -0.010615
      9.35192    -20.04400    -11.57241         0.000729      0.006732      0.000890
      9.35192    -14.31714     -1.65320        -0.002875      0.002158     -0.003739
      9.35192    -17.18057     -6.61281        -0.005965     -0.004530      0.000157
      9.35192     -8.59029    -11.57241        -0.007053     -0.002265      0.003748
      9.35192     -2.86343     -1.65320        -0.000061      0.005144     -0.015213
      9.35192     -5.72686     -6.61281         0.005085     -0.019766      0.000430
      9.35192    -14.31714    -11.57241        -0.006106      0.002649     -0.001316
      9.35192     -8.59029     -1.65320        -0.006510     -0.007521     -0.002661
      9.35192    -11.45372     -6.61281         0.019711     -0.005723     -0.000839
     11.69112    -22.90743    -13.22561        -0.009478     -0.009338     -0.002413
     11.69112    -17.18057     -3.30640        -0.018374      0.004606     -0.006783
     11.69112    -20.04400     -8.26601        -0.011498     -0.014949      0.003801
     11.69112    -11.45372    -13.22561        -0.017540     -0.002653      0.005259
     11.69112     -5.72686     -3.30640        -0.010871      0.005946     -0.003474
     11.69112     -8.59029     -8.26601        -0.028730     -0.017153      0.003727
     11.69112    -17.18057    -13.22561        -0.003839     -0.000856     -0.013397
     11.69112    -11.45372     -3.30640        -0.016503      0.003286     -0.018810
     11.69112    -14.31714     -8.26601        -0.012243     -0.000230      0.006919
     13.99306      0.00000      0.00000        -0.046150     -0.004313     -0.006934
     13.99306     -2.86343     -4.95960        -0.045399     -0.004455      0.002877
     13.99306     -5.72686     -9.91921        -0.043693     -0.000957     -0.000158
     13.99306     -5.72686      0.00000        -0.040340      0.000704     -0.004672
     13.99306     -8.59029     -4.95960        -0.091202      0.011140     -0.010990
     13.99306    -11.45372     -9.91921        -0.069234      0.003848      0.020884
     13.99306    -11.45372      0.00000        -0.057561     -0.001363      0.008932
     13.99306    -14.31714     -4.95960        -0.049869     -0.004641     -0.005566
     13.99306    -17.18057     -9.91921        -0.054160      0.007815     -0.002425
     16.34180     -2.86343     -1.65320        -0.101727     -0.009626     -0.001436
     16.34180     -5.72686     -6.61281        -0.072665     -0.007981      0.001422
     16.34180     -8.59029    -11.57241        -0.066096      0.003081      0.001977
     16.34180     -8.59029     -1.65320        -0.076491      0.004251     -0.011842
     16.34180    -11.45372     -6.61281         0.108167     -0.028513      0.001399
     16.34180    -14.31714    -11.57241        -0.087976      0.004903      0.001359
[...]
     13.99306    -10.02200     -7.43941        -0.101587     -0.000000      0.001979
     13.99306    -18.61229    -12.39901        -0.049837     -0.000000     -0.004966
     13.99306    -12.88543     -2.47980        -0.041416     -0.007702      0.003427
     13.99306    -15.74886     -7.43941        -0.036984     -0.000384     -0.005392
     16.34180    -10.02200    -14.05221        -0.091691     -0.000000     -0.005901
     16.34180     -4.29514     -4.13300        -0.082615     -0.005447     -0.007768
     16.34180     -7.15857     -9.09261        -0.090605      0.010226      0.013662
     16.34180    -15.74886    -14.05221        -0.090663     -0.002067      0.003903
     16.34180    -10.02200     -4.13300         0.071581     -0.000000     -0.176295
     16.34180    -12.88543     -9.09261        -0.090605     -0.010226      0.013662
     16.34180    -21.47572    -14.05221        -0.090663      0.002067      0.003903
     16.34180    -15.74886     -4.13300        -0.082615      0.005447     -0.007768
     16.34180    -18.61229     -9.09261        -0.101778     -0.000000      0.004334
     18.54000    -10.02200     -7.24000        -0.291510      0.000000     -5.981786
     18.54000    -10.02200     -5.98600        -0.378233     -0.000000      5.936615
    total drift:                                0.080941     -0.000076     -0.004075

  FREE ENERGIE OF THE ION-ELECTRON SYSTEM (eV)
  free  energy   TOTEN  =     -1001.86319769 eV

  energy  without entropy=    -1001.77997555  energy(sigma->0) =    -1001.82158662

 stress matrix after NEB project (eV)
    -62.80133     -0.00000      0.00002
     -0.00000    -75.85085      0.00000
      0.00002      0.00000    -75.85761
  FORCES: max atom, RMS     5.988884    0.532999
  FORCE total and by dimension    8.494609    5.981786
  Stress total and by dimension  124.305012   75.857613