 vasp.6.2.1 16May21 (build Jun 16 2021 03:23:30) complex
 executed on             LinuxPGI date 2022.04.26  01:52:24

 INCAR:
   SYSTEM = NiAl
   ISTART = 0
   EDIFF = 5E-6
   NELMIN = 6
   NELM = 250
   ISIF = 0
   IVDW = 12
   LWAVE = .FALSE.
   LCHARG = .FALSE.
   LREAL = Auto
   NCORE = 1
   LPLANE = .TRUE.
   ENCUT = 360.00 eV
   ISMEAR = 0
   SIGMA = 0.05

 POTCAR:    PAW Ni_GW 31Mar2010
 POTCAR:    PAW O_GW 19Mar2012
 POTCAR:    PAW Ni_GW 31Mar2010
   VRHFIN =Ni:

   TITEL  = PAW Ni_GW 31Mar2010
   POMASS =   58.690; ZVAL   =   10.000    mass and valenz
   ENMAX  =  357.323; ENMIN  =  267.992 eV

 POTCAR:    PAW O_GW 19Mar2012
   VRHFIN =O: s2p4

   TITEL  = PAW O_GW 19Mar2012
   POMASS =   16.000; ZVAL   =    6.000    mass and valenz
   ENMAX  =  434.431; ENMIN  =  325.824 eV

 Optimization of the real space projectors (new method)

 maximal supplied QI-value         = 16.25
 optimisation between [QCUT,QGAM] = [  9.59, 19.34] = [ 25.75,104.73] Ry
 Optimized for a Real-space Cutoff    1.46 Angstroem

   l    n(q)    QCUT    max X(q) W(low)/X(q) W(high)/X(q)  e(spline)
   2      7     9.588    94.285    0.33E-03    0.50E-03    0.16E-06
   2      7     9.588    92.549    0.33E-03    0.50E-03    0.16E-06
   0      8     9.588    17.118    0.28E-04    0.17E-03    0.57E-07
   0      8     9.588     8.062    0.24E-04    0.17E-03    0.61E-07
   1      8     9.588     4.910    0.48E-03    0.22E-03    0.79E-07
   1      8     9.588     3.344    0.32E-03    0.14E-03    0.56E-07
   3      7     9.588     5.513    0.55E-04    0.16E-03    0.12E-06
 Optimization of the real space projectors (new method)

 maximal supplied QI-value         = 23.62
 optimisation between [QCUT,QGAM] = [  9.68, 19.37] = [ 26.27,105.06] Ry
 Optimized for a Real-space Cutoff    2.14 Angstroem

   l    n(q)    QCUT    max X(q) W(low)/X(q) W(high)/X(q)  e(spline)
   0     13     9.685   116.464    0.15E-03    0.15E-03    0.47E-05
   0     13     9.685   116.329    0.15E-03    0.15E-03    0.46E-05
   0     13     9.685     0.942    0.20E-04    0.50E-04    0.17E-05
   1     12     9.685    29.046    0.36E-03    0.11E-02    0.25E-04
   1     12     9.685    24.247    0.38E-03    0.11E-02    0.26E-04
   1     12     9.685     2.381    0.13E-03    0.38E-03    0.78E-05
   2     12     9.685     2.237    0.60E-05    0.28E-04    0.14E-05
   2     12     9.685     1.850    0.17E-04    0.70E-04    0.25E-05
  PAW Ni_GW 31Mar2010                   :
  PAW O_GW 19Mar2012                    :

 POSCAR: New structure
  positions in cartesian coordinates
 exchange correlation table for  LEXCH =        8
   RHO(1)=    0.500       N(1)  =     2000
   RHO(2)=  100.500       N(2)  =     4000

 VTST: version 4.1, (05/19/21)

 CHAIN: initializing optimizer

 OPT: Using VASP Dynamics algorithm
 CHAIN: Read ICHAIN             0

 POSCAR: New structure
  positions in cartesian coordinates

 ion  position               nearest neighbor table
   1  0.444  0.444  0.104-  73 2.47 199 2.47 136 2.47 190 2.52  65 2.52 127 2.52 130 2.52  67 2.52
                           191 2.52
   2  0.444  0.778  0.104-  74 2.47 200 2.47 137 2.47 191 2.52  66 2.52 131 2.52 128 2.52 192 2.52
                            68 2.52
   3  0.444  0.111  0.104- 138 2.47  75 2.47 201 2.47  64 2.52 190 2.52 132 2.52 129 2.52 192 2.52
                            69 2.52
   4  0.778  0.444  0.104-  76 2.47 202 2.47 139 2.47 193 2.52  68 2.52 130 2.52 133 2.52  70 2.52
                           194 2.52
   5  0.778  0.778  0.104-  77 2.47 203 2.47 140 2.47 194 2.52  69 2.52 134 2.52 131 2.52 195 2.52
                            71 2.52
   6  0.778  0.111  0.104- 141 2.47  78 2.47 204 2.47  67 2.52 193 2.52 135 2.52 132 2.52 195 2.52
                            72 2.52
   7  0.111  0.444  0.104-  79 2.47 205 2.47 142 2.47 196 2.52  71 2.52 127 2.52 133 2.52  64 2.52
                           197 2.52
   8  0.111  0.778  0.104-  80 2.47 206 2.47 143 2.47 197 2.52  72 2.52 128 2.52 134 2.52 198 2.52
                            65 2.52
   9  0.111  0.111  0.104- 144 2.47  81 2.47 207 2.47  70 2.52 196 2.52 129 2.52 198 2.52 135 2.52
                            66 2.52
  10  0.556  0.556  0.173- 191 2.47  68 2.47 130 2.47  82 2.48 208 2.48 145 2.48  74 2.52 199 2.52
                           139 2.52 136 2.52 200 2.52  76 2.52
  11  0.556  0.889  0.173- 192 2.47  69 2.47 131 2.47 146 2.48  83 2.48 209 2.48  75 2.52 201 2.52
                           200 2.52 137 2.52 140 2.52  77 2.52
  12  0.556  0.222  0.173- 190 2.47 132 2.47  67 2.47  84 2.48 210 2.48 147 2.48 201 2.52  73 2.52
                           138 2.52 141 2.52 199 2.52  78 2.52
  13  0.889  0.556  0.173- 194 2.47  71 2.47 133 2.47  85 2.48 148 2.48 211 2.48  77 2.52 202 2.52
                           139 2.52 142 2.52 203 2.52  79 2.52
  14  0.889  0.889  0.173- 195 2.47  72 2.47 134 2.47 149 2.48  86 2.48 212 2.48  78 2.52 204 2.52
                           203 2.52 140 2.52 143 2.52  80 2.52
  15  0.889  0.222  0.173- 193 2.47 135 2.47  70 2.47  87 2.48 150 2.48 213 2.48 204 2.52  76 2.52
                           141 2.52 144 2.52 202 2.52  81 2.52
  16  0.222  0.556  0.173- 197 2.47  65 2.47 127 2.47  88 2.48 214 2.48 151 2.48  80 2.52 205 2.52
                           136 2.52 142 2.52 206 2.52  73 2.52
  17  0.222  0.889  0.173- 198 2.47  66 2.47 128 2.47 152 2.48  89 2.48 215 2.48  81 2.52 207 2.52
                           206 2.52 143 2.52 137 2.52  74 2.52
  18  0.222  0.222  0.173- 196 2.47 129 2.47  64 2.47  90 2.48 216 2.48 153 2.48 207 2.52  79 2.52
                           144 2.52 138 2.52 205 2.52  75 2.52
  19  0.667  0.667  0.242- 154 2.48  91 2.48 217 2.48 200 2.48  77 2.48 139 2.48  83 2.52 209 2.52
                           208 2.52 145 2.52 148 2.52  85 2.52
  20  0.667  0.000  0.242-  92 2.48 218 2.48 155 2.48 201 2.48 140 2.48  78 2.48  84 2.52 146 2.52
                           149 2.52 209 2.52 210 2.52  86 2.52
  21  0.667  0.333  0.242- 156 2.48  93 2.48 219 2.48 199 2.48  76 2.48 141 2.48 210 2.52  82 2.52
                           150 2.52 147 2.52  87 2.52 208 2.52
  22  1.000  0.667  0.242- 157 2.48  94 2.48 220 2.48 203 2.48  80 2.48 142 2.48  86 2.52 212 2.52
                           211 2.52 151 2.52 148 2.52  88 2.52
  23  0.000  0.000  0.242-  95 2.48 221 2.48 158 2.48 204 2.48 143 2.48  81 2.48  87 2.52 152 2.52
                           212 2.52 149 2.52 213 2.52  89 2.52
  24  1.000  0.333  0.242- 159 2.48  96 2.48 222 2.48 202 2.48  79 2.48 144 2.48 213 2.52  85 2.52
                           153 2.52 150 2.52  90 2.52 211 2.52
  25  0.333  0.667  0.242- 160 2.48  97 2.48 223 2.48 206 2.48  74 2.48 136 2.48  89 2.52 215 2.52
                           214 2.52 151 2.52 145 2.52  82 2.52
  26  0.333  0.000  0.242-  98 2.48 224 2.48 161 2.48 207 2.48 137 2.48  75 2.48  90 2.52 152 2.52
                           146 2.52 215 2.52 216 2.52  83 2.52
  27  0.333  0.333  0.242- 162 2.48  99 2.48 225 2.48 205 2.48  73 2.48 138 2.48 216 2.52  88 2.52
                           147 2.52 153 2.52  84 2.52 214 2.52
  28  0.778  0.778  0.312- 209 2.48 100 2.48 148 2.48  86 2.48 226 2.48 163 2.48 217 2.52  92 2.52
                           157 2.52 154 2.52 218 2.52  94 2.52
  29  0.778  0.111  0.312- 210 2.48 164 2.48 101 2.48  87 2.48 149 2.48 227 2.48  93 2.52 219 2.52
                           155 2.52 158 2.52 218 2.52  95 2.52
  30  0.778  0.444  0.312- 102 2.48 150 2.48 208 2.48 228 2.48 165 2.48  85 2.48 219 2.52  91 2.52
                           156 2.52 159 2.52  96 2.52 217 2.52
  31  0.111  0.778  0.312- 212 2.48 103 2.48 151 2.48  89 2.48 229 2.48 166 2.48 220 2.52  95 2.52
                           160 2.52 157 2.52 221 2.52  97 2.52
  32  0.111  0.111  0.312- 213 2.48 167 2.48 104 2.48  90 2.48 152 2.48 230 2.48  96 2.52 222 2.52
                           161 2.52 221 2.52 158 2.52  98 2.52
  33  0.111  0.444  0.312- 105 2.48 153 2.48 211 2.48 231 2.48 168 2.48  88 2.48 222 2.52  94 2.52
                           162 2.52 159 2.52  99 2.52 220 2.52
  34  0.444  0.778  0.312- 215 2.48 106 2.48 145 2.48  83 2.48 232 2.48 169 2.48 223 2.52  98 2.52
                           154 2.52 160 2.52 224 2.52  91 2.52
  35  0.444  0.111  0.312- 216 2.48 170 2.48 107 2.48  84 2.48 146 2.48 233 2.48  99 2.52 225 2.52
                           155 2.52 161 2.52 224 2.52  92 2.52
  36  0.444  0.444  0.312- 108 2.48 147 2.48 214 2.48 234 2.48 171 2.48  82 2.48 225 2.52  97 2.52
                           162 2.52 156 2.52  93 2.52 223 2.52
  37  0.889  0.889  0.381- 218 2.48  95 2.48 157 2.48 172 2.48 109 2.48 235 2.48 101 2.52 227 2.52
                           226 2.52 163 2.52 166 2.52 103 2.52
  38  0.889  0.222  0.381- 219 2.48 158 2.48  96 2.48 110 2.48 173 2.48 236 2.48 227 2.52 102 2.52
                           164 2.52 167 2.52 228 2.52 104 2.52
  39  0.889  0.556  0.381- 217 2.48  94 2.48 159 2.48 111 2.48 174 2.48 237 2.48 100 2.52 228 2.52
                           165 2.52 168 2.52 226 2.52 105 2.52
  40  0.222  0.889  0.381- 221 2.48  98 2.48 160 2.48 175 2.48 112 2.48 238 2.48 104 2.52 230 2.52
                           229 2.52 169 2.52 166 2.52 106 2.52
  41  0.222  0.222  0.381- 222 2.48 161 2.48  99 2.48 113 2.48 239 2.48 176 2.48 230 2.52 105 2.52
                           167 2.52 170 2.52 231 2.52 107 2.52
  42  0.222  0.556  0.381- 220 2.48  97 2.48 162 2.48 114 2.48 240 2.48 177 2.48 103 2.52 231 2.52
                           171 2.52 168 2.52 229 2.52 108 2.52
  43  0.556  0.889  0.381- 224 2.48  92 2.48 154 2.48 178 2.48 115 2.48 241 2.48 107 2.52 233 2.52
                           232 2.52 169 2.52 163 2.52 100 2.52
  44  0.556  0.222  0.381- 225 2.48 155 2.48  93 2.48 116 2.48 242 2.48 179 2.48 233 2.52 108 2.52
                           170 2.52 164 2.52 234 2.52 101 2.52
  45  0.556  0.556  0.381- 223 2.48  91 2.48 156 2.48 117 2.48 243 2.48 180 2.48 106 2.52 234 2.52
                           165 2.52 171 2.52 232 2.52 102 2.52
  46  0.000  0.000  0.450- 118 2.47 244 2.47 181 2.47 227 2.48 166 2.48 104 2.48 110 2.52 175 2.52
                           235 2.52 172 2.52 236 2.52 112 2.52
  47  1.000  0.333  0.450- 182 2.47 119 2.47 245 2.47 228 2.48 105 2.48 167 2.48 236 2.52 111 2.52
                           176 2.52 173 2.52 113 2.52 237 2.52
  48  1.000  0.667  0.450- 183 2.47 120 2.47 246 2.47 226 2.48 103 2.48 168 2.48 109 2.52 235 2.52
                           237 2.52 177 2.52 174 2.52 114 2.52
  49  0.333  0.000  0.450- 121 2.47 247 2.47 184 2.47 230 2.48 169 2.48 107 2.48 113 2.52 175 2.52
                           178 2.52 238 2.52 239 2.52 115 2.52
  50  0.333  0.333  0.450- 185 2.47 122 2.47 248 2.47 231 2.48 108 2.48 170 2.48 239 2.52 114 2.52
                           179 2.52 176 2.52 116 2.52 240 2.52
  51  0.333  0.667  0.450- 186 2.47 123 2.47 249 2.47 229 2.48 106 2.48 171 2.48 112 2.52 238 2.52
                           240 2.52 177 2.52 180 2.52 117 2.52
  52  0.667  0.000  0.450- 124 2.47 250 2.47 187 2.47 233 2.48 163 2.48 101 2.48 116 2.52 178 2.52
                           172 2.52 241 2.52 242 2.52 109 2.52
[...]
   0.505E+04 -.489E+00 0.606E-01   -.505E+04 0.526E+00 -.104E-02   -.184E+01 0.562E-02 0.329E-02   0.386E-01 -.375E-01 -.596E-01
   0.505E+04 0.225E+00 0.877E+00   -.505E+04 -.256E+00 -.928E+00   -.183E+01 0.719E-02 -.411E-02   0.355E-02 0.317E-01 0.513E-01
   0.505E+04 -.486E+00 -.512E+00   -.505E+04 0.494E+00 0.491E+00   -.184E+01 0.163E-03 -.685E-02   -.640E-02 -.781E-02 0.216E-01
   0.505E+04 0.971E+00 0.333E-01   -.505E+04 -.102E+01 -.820E-03   -.183E+01 0.132E-04 0.821E-02   0.311E-01 0.521E-01 -.318E-01
   0.505E+04 0.247E+00 -.351E-04   -.505E+04 -.240E+00 -.530E-01   -.183E+01 -.701E-02 -.396E-02   0.105E-01 -.721E-02 0.525E-01
   0.505E+04 0.277E+00 -.889E+00   -.505E+04 -.256E+00 0.933E+00   -.184E+01 0.148E-01 -.897E-02   -.846E-02 -.200E-01 -.431E-01
   0.505E+04 -.482E+00 0.882E-01   -.505E+04 0.496E+00 -.144E-02   -.184E+01 -.593E-02 0.348E-02   -.773E-02 -.135E-01 -.869E-01
   0.505E+04 -.472E+00 0.430E+00   -.505E+04 0.494E+00 -.487E+00   -.184E+01 -.311E-03 0.174E-01   0.333E-01 -.220E-01 0.576E-01
   0.505E+04 0.213E+00 -.951E-01   -.505E+04 -.239E+00 0.568E-01   -.184E+01 -.151E-01 -.867E-02   -.205E-01 0.249E-01 0.380E-01
   0.337E+04 0.206E+00 0.213E+00   -.337E+04 -.221E+00 -.249E+00   -.160E+00 -.924E-03 -.557E-03   -.173E-01 0.152E-01 0.359E-01
   0.337E+04 0.764E-01 0.531E-01   -.337E+04 -.800E-01 -.867E-01   -.161E+00 -.186E-03 0.132E-02   0.124E-02 0.369E-02 0.329E-01
   0.337E+04 -.152E+00 -.335E+00   -.337E+04 0.178E+00 0.407E+00   -.162E+00 -.146E-02 0.691E-03   0.646E-01 -.267E-01 -.708E-01
   0.337E+04 0.183E+00 0.133E+00   -.337E+04 -.217E+00 -.847E-01   -.161E+00 0.977E-03 -.850E-03   0.212E-01 0.336E-01 -.473E-01
   0.337E+04 -.871E-02 -.217E+00   -.337E+04 0.366E-01 0.138E+00   -.167E+00 0.330E-02 0.206E-02   0.118E-01 -.285E-01 0.779E-01
   0.337E+04 0.307E+00 -.193E+00   -.337E+04 -.355E+00 0.255E+00   -.167E+00 0.309E-03 -.391E-02   0.627E-02 0.472E-01 -.610E-01
   0.337E+04 -.386E+00 0.231E+00   -.337E+04 0.436E+00 -.167E+00   -.163E+00 -.125E-03 -.170E-02   0.385E-01 -.497E-01 -.639E-01
   0.337E+04 -.569E-01 0.241E+00   -.337E+04 0.409E-01 -.312E+00   -.167E+00 -.321E-02 0.227E-02   -.237E-01 0.166E-01 0.701E-01
   0.337E+04 -.159E+00 -.126E+00   -.337E+04 0.174E+00 0.103E+00   -.163E+00 0.117E-02 0.698E-03   0.799E-01 -.140E-01 0.233E-01
   0.169E+04 0.309E+00 0.139E+00   -.169E+04 -.285E+00 -.201E+00   -.161E-01 -.331E-03 -.730E-04   -.390E-01 -.242E-01 0.621E-01
   0.169E+04 -.412E-01 -.217E+00   -.169E+04 0.318E-01 0.253E+00   -.215E-01 -.158E-02 -.104E-03   0.759E-01 0.109E-01 -.357E-01
   0.169E+04 0.152E+00 -.165E+00   -.169E+04 -.177E+00 0.199E+00   -.217E-01 -.706E-03 0.166E-02   -.501E-02 0.260E-01 -.347E-01
   0.169E+04 -.107E+00 0.681E-01   -.169E+04 0.140E+00 -.813E-01   -.217E-01 -.956E-03 -.141E-02   -.990E-03 -.323E-01 0.147E-01
   0.169E+04 0.510E-01 -.100E+00   -.169E+04 -.639E-01 0.713E-01   -.238E-01 0.509E-04 0.124E-03   0.176E-01 0.128E-01 0.286E-01
   0.169E+04 0.158E+00 -.379E-01   -.169E+04 -.173E+00 0.679E-01   -.216E-01 0.541E-03 0.154E-02   0.609E-01 0.141E-01 -.312E-01
   0.169E+04 -.202E+00 0.258E+00   -.169E+04 0.143E+00 -.323E+00   -.218E-01 0.125E-02 -.139E-02   -.542E-01 0.579E-01 0.659E-01
   0.169E+04 -.158E-01 0.152E+00   -.169E+04 0.306E-01 -.110E+00   -.217E-01 0.157E-02 -.396E-03   0.244E-01 -.164E-01 -.417E-01
   0.169E+04 -.303E+00 -.109E+00   -.169E+04 0.349E+00 0.133E+00   -.142E-01 0.133E-03 0.126E-03   0.108E+00 -.454E-01 -.236E-01
   0.898E+01 0.191E+00 0.240E-01   -.897E+01 -.158E+00 -.346E-01   0.269E-02 -.922E-03 -.518E-03   -.972E-02 -.335E-01 0.101E-01
   0.949E+01 0.116E+00 -.579E+00   -.950E+01 -.165E+00 0.602E+00   -.618E-02 0.121E-01 -.729E-02   0.904E-02 0.492E-01 -.220E-01
   0.972E+01 0.654E+00 -.109E-01   -.968E+01 -.656E+00 -.383E-03   0.265E-02 0.139E-03 0.127E-02   -.332E-01 0.241E-02 0.120E-01
   0.925E+01 -.346E+00 0.270E+00   -.923E+01 0.321E+00 -.316E+00   -.621E-02 -.235E-03 0.141E-01   -.286E-01 0.255E-01 0.457E-01
   0.892E+01 0.191E+00 0.454E-02   -.897E+01 -.156E+00 0.377E-01   -.617E-02 -.123E-01 -.706E-02   0.498E-01 -.343E-01 -.420E-01
   0.913E+01 -.276E+00 -.222E-01   -.914E+01 0.322E+00 -.122E-02   -.132E-01 -.349E-02 0.220E-02   0.134E-01 -.451E-01 0.227E-01
   0.950E+01 0.158E+00 0.587E+00   -.950E+01 -.165E+00 -.598E+00   0.257E-02 0.112E-02 -.520E-03   -.579E-02 0.704E-02 0.109E-01
   0.918E+01 -.305E+00 -.239E+00   -.923E+01 0.320E+00 0.318E+00   -.133E-01 0.128E-03 -.411E-02   0.498E-01 -.153E-01 -.779E-01
   0.102E+02 -.384E+00 -.447E-01   -.102E+02 0.333E+00 -.741E-03   -.122E-01 0.331E-02 0.191E-02   -.389E-02 0.497E-01 0.450E-01
   -.167E+04 -.114E+00 -.448E+00   0.167E+04 0.116E+00 0.447E+00   0.254E-01 0.587E-02 0.347E-02   -.300E-01 -.246E-02 0.133E-02
   -.167E+04 0.122E+01 -.868E+00   0.167E+04 -.120E+01 0.869E+00   0.255E-01 0.199E-03 -.680E-02   -.296E-02 -.252E-01 -.344E-03
   -.167E+04 0.743E+00 0.253E+00   0.167E+04 -.719E+00 -.275E+00   0.351E-01 0.429E-04 -.264E-03   -.327E-01 -.253E-01 0.225E-01
   -.167E+04 -.167E+00 0.107E+01   0.167E+04 0.144E+00 -.104E+01   0.256E-01 -.571E-02 0.361E-02   0.488E-01 0.226E-01 -.251E-01
   -.167E+04 -.532E+00 -.336E+00   0.167E+04 0.573E+00 0.339E+00   0.220E-01 -.118E-02 -.621E-03   -.250E-01 -.400E-01 -.277E-02
   -.167E+04 -.147E+01 0.515E+00   0.167E+04 0.150E+01 -.572E+00   0.218E-01 -.206E-03 0.112E-02   -.217E-01 -.266E-01 0.552E-01
   -.167E+04 0.283E+00 0.371E+00   0.167E+04 -.263E+00 -.296E+00   0.352E-01 -.217E-03 0.107E-03   -.312E-02 -.200E-01 -.757E-01
   -.167E+04 -.691E+00 -.139E+01   0.167E+04 0.623E+00 0.142E+01   0.216E-01 0.960E-03 -.692E-03   -.668E-01 0.665E-01 -.298E-01
   -.167E+04 0.737E+00 0.829E+00   0.167E+04 -.782E+00 -.882E+00   0.350E-01 0.133E-03 0.880E-04   0.316E-01 0.447E-01 0.531E-01
   -.336E+04 0.692E+00 -.753E+00   0.336E+04 -.645E+00 0.745E+00   0.153E+00 -.848E-04 0.558E-04   0.406E-02 -.474E-01 0.759E-02
   -.336E+04 0.180E+01 -.702E+00   0.336E+04 -.178E+01 0.663E+00   0.162E+00 0.281E-03 0.560E-03   -.171E-01 -.163E-01 0.378E-01
   -.336E+04 -.137E+01 0.806E+00   0.336E+04 0.140E+01 -.816E+00   0.162E+00 0.842E-05 -.690E-03   -.192E-01 -.326E-01 0.119E-01
   -.336E+04 -.287E+00 0.113E+01   0.336E+04 0.265E+00 -.108E+01   0.162E+00 0.616E-03 0.130E-04   -.327E-01 0.204E-01 -.477E-01
   -.335E+04 -.389E+01 -.148E+01   0.335E+04 0.390E+01 0.148E+01   0.155E+00 0.454E-03 0.198E-03   -.898E-01 -.823E-02 -.145E-02
   -.335E+04 -.168E+01 0.375E+01   0.335E+04 0.167E+01 -.379E+01   0.162E+00 0.373E-03 -.102E-02   0.472E-01 0.641E-02 0.380E-01
   -.336E+04 -.408E+00 -.259E+01   0.336E+04 0.380E+00 0.261E+01   0.161E+00 -.520E-03 0.505E-03   -.784E-01 0.292E-01 -.179E-01
   -.335E+04 0.212E+01 -.236E+01   0.335E+04 -.215E+01 0.242E+01   0.162E+00 -.755E-03 0.649E-03   -.144E-01 0.246E-01 -.577E-01
   -.335E+04 0.303E+01 0.220E+01   0.335E+04 -.306E+01 -.222E+01   0.154E+00 -.367E-03 -.238E-03   0.238E-01 0.251E-01 0.276E-01
   -.504E+04 0.195E+01 -.494E+00   0.504E+04 -.196E+01 0.489E+00   0.184E+01 -.524E-02 -.289E-02   -.255E-01 0.125E-01 0.472E-02
   -.504E+04 -.458E+01 -.127E-01   0.503E+04 0.459E+01 -.833E-03   0.182E+01 -.240E-02 0.173E-02   -.157E-01 -.307E-02 0.128E-01
   -.503E+04 -.455E+01 0.467E+01   0.503E+04 0.461E+01 -.468E+01   0.184E+01 -.257E-03 0.585E-02   -.150E-01 -.570E-01 0.989E-02
   -.503E+04 -.464E+01 -.466E+01   0.503E+04 0.460E+01 0.468E+01   0.182E+01 0.347E-03 -.282E-02   -.365E-01 0.329E-01 -.246E-01
   -.501E+04 -.703E+01 0.620E-01   0.501E+04 0.705E+01 0.426E-03   0.181E+01 0.317E-02 0.129E-02   -.434E-01 -.225E-01 -.623E-01
   -.503E+04 0.266E+01 0.952E+01   0.503E+04 -.272E+01 -.957E+01   0.184E+01 -.877E-03 0.582E-03   -.489E-02 0.564E-01 0.460E-01
[...]
   -.336E+04 0.104E+01 0.378E+00   0.336E+04 -.105E+01 -.375E+00   0.162E+00 -.582E-03 0.588E-03   -.310E-01 0.433E-02 -.417E-02
   -.335E+04 -.259E-01 -.417E+01   0.335E+04 0.709E-03 0.422E+01   0.154E+00 -.260E-03 0.133E-03   -.660E-01 0.252E-01 -.426E-01
   -.335E+04 0.374E+01 0.106E+01   0.335E+04 -.379E+01 -.107E+01   0.162E+00 -.773E-03 0.216E-03   0.301E-01 0.476E-01 0.459E-02
   -.504E+04 -.180E+00 0.248E+01   0.503E+04 0.199E+00 -.250E+01   0.183E+01 -.260E-02 0.170E-02   -.152E-01 -.184E-01 0.148E-01
   -.504E+04 -.188E-01 -.146E+01   0.504E+04 0.172E-03 0.144E+01   0.184E+01 -.206E-03 0.614E-02   -.321E-01 0.186E-01 0.173E-01
   -.503E+04 -.703E+01 0.313E+01   0.503E+04 0.707E+01 -.313E+01   0.184E+01 -.500E-02 -.322E-02   -.970E-02 -.484E-01 -.413E-02
   -.504E+04 0.158E+00 0.250E+01   0.503E+04 -.198E+00 -.250E+01   0.183E+01 0.264E-02 0.145E-02   -.953E-02 0.393E-01 0.116E-03
   -.502E+04 -.882E+01 -.733E+01   0.502E+04 0.882E+01 0.738E+01   0.183E+01 -.608E-03 0.136E-02   -.433E-01 0.522E-02 -.524E-01
   -.502E+04 -.252E-01 0.101E+02   0.501E+04 0.213E-02 -.101E+02   0.182E+01 0.244E-03 -.433E-02   -.319E-01 0.227E-01 0.158E-01
   -.504E+04 0.179E-01 -.502E+01   0.503E+04 0.113E-03 0.501E+01   0.184E+01 0.136E-03 -.112E-02   0.155E-02 -.182E-01 0.165E-01
   -.502E+04 0.884E+01 -.735E+01   0.502E+04 -.881E+01 0.738E+01   0.183E+01 0.948E-03 0.144E-02   -.777E-02 -.230E-01 -.331E-01
   -.503E+04 0.705E+01 0.310E+01   0.503E+04 -.707E+01 -.313E+01   0.184E+01 0.490E-02 -.340E-02   0.399E-02 0.209E-01 0.274E-01
   -.118E+04 0.105E-01 -.344E+03   0.118E+04 -.611E-05 0.428E+03   0.258E-01 -.148E-01 -.675E+02   0.366E-03 -.460E-03 0.268E-01
   -.118E+04 -.971E-02 0.344E+03   0.118E+04 -.138E-05 -.428E+03   0.278E-01 0.154E-01 0.675E+02   -.818E-03 0.814E-05 -.320E-01
   -.153E+00 0.817E-03 0.514E-03   -.143E-10 -.639E-12 -.227E-12   -.242E+00 0.122E-02 0.726E-02   0.256E+00 -.461E-03 -.531E-02

 POSITION                                       TOTAL-FORCE (eV/Angst)
      3.02601    -10.09748     -5.82978         0.120385      0.005360      0.003185
      3.02601    -12.62185    -10.20212         0.133174      0.007575     -0.004372
      3.02601     -7.57311     -1.45745         0.121264      0.000059     -0.005965
      3.02601    -15.14622     -5.82978         0.133255     -0.000007      0.008887
      3.02601    -17.67059    -10.20212         0.133261     -0.007461     -0.004499
      3.02601    -12.62185     -1.45745         0.124137      0.015446     -0.008713
      3.02601     -5.04874     -5.82978         0.120694     -0.005053      0.003297
      3.02601     -7.57311    -10.20212         0.124473      0.000070      0.017545
      3.02601     -2.52437     -1.45745         0.124618     -0.015408     -0.008970
      5.02238    -12.62185     -7.28723         0.130261     -0.000662     -0.000602
      5.02238    -15.14622    -11.65957         0.129267     -0.000099      0.000631
      5.02238    -10.09748     -2.91489         0.126201     -0.001942      0.001363
      5.02238    -17.67059     -7.28723         0.128886      0.000318     -0.000123
      5.02238    -20.19496    -11.65957         0.121944      0.002681      0.001063
      5.02238    -15.14622     -2.91489         0.121941     -0.000173     -0.002612
      5.02238     -7.57311     -7.28723         0.125727      0.000101     -0.001901
      5.02238    -10.09748    -11.65957         0.122072     -0.002593      0.001262
      5.02238     -5.04874     -2.91489         0.125667      0.001936      0.000814
      7.03247    -15.14622     -8.74468         0.012440     -0.000046     -0.000369
      7.03247    -10.09748      0.00000         0.006401     -0.000069     -0.000112
      7.03247    -12.62185     -4.37234         0.006485      0.000155      0.000134
      7.03247    -20.19496     -8.74468         0.006717     -0.000147      0.000119
      7.03247      0.00000      0.00000         0.004258     -0.000092     -0.000094
      7.03247    -17.67059     -4.37234         0.006475     -0.000343      0.000277
      7.03247    -10.09748     -8.74468         0.006853     -0.000100     -0.000126
      7.03247     -5.04874      0.00000         0.006650      0.000004     -0.000036
      7.03247     -7.57311     -4.37234         0.014386      0.000295      0.000117
      9.04019    -17.67059    -10.20212         0.002212     -0.001580     -0.001045
      9.04019    -12.62185     -1.45745        -0.006885      0.011915     -0.006923
      9.04019    -15.14622     -5.82978         0.002720     -0.000001      0.001972
      9.04019     -7.57311    -10.20212        -0.006748     -0.000189      0.013861
      9.04019     -2.52437     -1.45745        -0.007200     -0.012087     -0.006882
      9.04019     -5.04874     -5.82978        -0.015401     -0.002780      0.001552
      9.04019    -12.62185    -10.20212         0.002336      0.001710     -0.001037
      9.04019     -7.57311     -1.45745        -0.015774      0.000020     -0.002991
      9.04019    -10.09748     -5.82978        -0.013370      0.002665      0.001450
     11.04791    -20.19496    -11.65957        -0.000258      0.005735      0.003432
     11.04791    -15.14622     -2.91489        -0.000319      0.000155     -0.006577
     11.04791    -17.67059     -7.28723         0.010738     -0.000519      0.000151
     11.04791    -10.09748    -11.65957        -0.000577     -0.005826      0.003543
     11.04791     -5.04874     -2.91489        -0.004480     -0.000200     -0.000266
     11.04791     -7.57311     -7.28723        -0.004592      0.000153      0.000110
     11.04791    -15.14622    -11.65957         0.010541      0.000112     -0.000143
     11.04791    -10.09748     -2.91489        -0.004589     -0.000049     -0.000111
     11.04791    -12.62185     -7.28723         0.010089      0.000253     -0.000010
     13.05800      0.00000      0.00000        -0.137537      0.000213     -0.000086
     13.05800    -17.67059     -4.37234        -0.129247     -0.000250     -0.001122
     13.05800    -20.19496     -8.74468        -0.129211      0.000582      0.000984
     13.05800     -5.04874      0.00000        -0.129134     -0.000997      0.000521
     13.05800     -7.57311     -4.37234        -0.134903      0.000130     -0.000021
     13.05800    -10.09748     -8.74468        -0.129529     -0.000742      0.000633
     13.05800    -10.09748      0.00000        -0.128957      0.000776      0.000062
     13.05800    -12.62185     -4.37234        -0.128783      0.000233     -0.000655
     13.05800    -15.14622     -8.74468        -0.137787     -0.000074     -0.000060
     15.05437     -2.52437     -1.45745        -0.121329     -0.005174     -0.002956
     15.05437     -5.04874     -5.82978        -0.134595     -0.002309      0.001046
     15.05437     -7.57311    -10.20212        -0.121435      0.000029      0.005777
     15.05437     -7.57311     -1.45745        -0.134166     -0.000243     -0.002415
     15.05437    -10.09748     -5.82978        -0.137529      0.001651      0.001317
     15.05437    -12.62185    -10.20212        -0.119493     -0.000760      0.000355
[...]
     13.05800     -8.83530     -6.55851        -0.129067     -0.000652      0.000296
     13.05800    -16.40841    -10.93084        -0.129101      0.000468     -0.000913
     13.05800    -11.35967     -2.18617        -0.137539     -0.000216     -0.000016
     13.05800    -13.88404     -6.55851        -0.129266      0.000809      0.000165
     15.05437     -8.83530    -12.38829        -0.134637     -0.002073      0.001173
     15.05437     -3.78656     -3.64361        -0.120954     -0.000216      0.005421
     15.05437     -6.31093     -8.01595        -0.121151     -0.005000     -0.002816
     15.05437    -13.88404    -12.38829        -0.134162      0.001902      0.001207
     15.05437     -8.83530     -3.64361        -0.118750     -0.000874     -0.000036
     15.05437    -11.35967     -8.01595        -0.136671     -0.000134     -0.001728
     15.05437    -18.93278    -12.38829        -0.119236      0.000009     -0.000746
     15.05437    -13.88404     -3.64361        -0.118847      0.000934     -0.000067
     15.05437    -16.40841     -8.01595        -0.121287      0.004846     -0.002960
     21.05000    -11.36000     -5.28000         0.033850     -0.004732     15.898756
     21.05000    -11.36000     -6.38000         0.034346      0.005690    -15.896244
    total drift:                               -0.139201      0.001580      0.002463

  FREE ENERGIE OF THE ION-ELECTRON SYSTEM (eV)
  free  energy   TOTEN  =     -1420.94588462 eV

  energy  without entropy=    -1419.40125200  energy(sigma->0) =    -1420.17356831

 stress matrix after NEB project (eV)
    -72.32613      0.00000      0.00000
      0.00000    -85.67070      0.00000
      0.00000      0.00000    -85.67073
  FORCES: max atom, RMS    15.898793    1.413956
  FORCE total and by dimension   22.534754   15.898756
  Stress total and by dimension  141.102843   85.670735