 vasp.6.2.1 16May21 (build Jun 16 2021 03:23:30) complex
 executed on             LinuxPGI date 2022.04.24  20:01:46

 INCAR:
   SYSTEM = NiAl
   ISTART = 0
   EDIFF = 1E-7
   NELMIN = 6
   IVDW = 12
   ISPIN = 2
   MAGMOM = 2 -2 2 -2 2 -2 2 -2 2 -2 2 -2 2 -2 2 -2 2 -2 2 -2 2 -2 2 -2 2 -2 2 -2 2 -2 2 -2 2 -2 2 -2 2 -2 2 -2 2 -2 2 -2 2 -2 2 -2 2 -2 2 -2 2 -2 2 -2 2 -2 2 -2 2 -2 2 -2 2 -2 2 -2 2 -2 2 -2 2 -2 2 -2 2 -2 2 -2 2 -2 2 -2 2 -2 2 -2 2 -2 2 -2 2 -2 2 -2 2 -2 2 -2 2 -2 2 -2 2 -2 2 -2 2 -2 2 -2 2 -2 2 -2 2 -2 2 -2 2 -2 2 -2 2 125*0
   LWAVE = .FALSE.
   LCHARG = .FALSE.
   LREAL = Auto
   NCORE = 1
   LPLANE = .TRUE.
   ENCUT = 360.00 eV
   ISMEAR = 0
   SIGMA = 0.05

 POTCAR:    PAW Ni_GW 31Mar2010
 POTCAR:    PAW O_GW 19Mar2012
 POTCAR:    PAW Ni_GW 31Mar2010
   VRHFIN =Ni:

   TITEL  = PAW Ni_GW 31Mar2010
   POMASS =   58.690; ZVAL   =   10.000    mass and valenz
   ENMAX  =  357.323; ENMIN  =  267.992 eV

 POTCAR:    PAW O_GW 19Mar2012
   VRHFIN =O: s2p4

   TITEL  = PAW O_GW 19Mar2012
   POMASS =   16.000; ZVAL   =    6.000    mass and valenz
   ENMAX  =  434.431; ENMIN  =  325.824 eV

 Optimization of the real space projectors (new method)

 maximal supplied QI-value         = 16.25
 optimisation between [QCUT,QGAM] = [  9.59, 19.34] = [ 25.75,104.73] Ry
 Optimized for a Real-space Cutoff    1.46 Angstroem

   l    n(q)    QCUT    max X(q) W(low)/X(q) W(high)/X(q)  e(spline)
   2      7     9.588    94.285    0.33E-03    0.50E-03    0.16E-06
   2      7     9.588    92.549    0.33E-03    0.50E-03    0.16E-06
   0      8     9.588    17.118    0.28E-04    0.17E-03    0.57E-07
   0      8     9.588     8.062    0.24E-04    0.17E-03    0.61E-07
   1      8     9.588     4.910    0.48E-03    0.22E-03    0.79E-07
   1      8     9.588     3.344    0.32E-03    0.14E-03    0.56E-07
   3      7     9.588     5.513    0.55E-04    0.16E-03    0.12E-06
 Optimization of the real space projectors (new method)

 maximal supplied QI-value         = 23.62
 optimisation between [QCUT,QGAM] = [  9.68, 19.37] = [ 26.27,105.06] Ry
 Optimized for a Real-space Cutoff    2.14 Angstroem

   l    n(q)    QCUT    max X(q) W(low)/X(q) W(high)/X(q)  e(spline)
   0     13     9.685   116.464    0.15E-03    0.15E-03    0.47E-05
   0     13     9.685   116.329    0.15E-03    0.15E-03    0.46E-05
   0     13     9.685     0.942    0.20E-04    0.50E-04    0.17E-05
   1     12     9.685    29.046    0.36E-03    0.11E-02    0.25E-04
   1     12     9.685    24.247    0.38E-03    0.11E-02    0.26E-04
   1     12     9.685     2.381    0.13E-03    0.38E-03    0.78E-05
   2     12     9.685     2.237    0.60E-05    0.28E-04    0.14E-05
   2     12     9.685     1.850    0.17E-04    0.70E-04    0.25E-05
  PAW Ni_GW 31Mar2010                   :
  PAW O_GW 19Mar2012                    :

 POSCAR: New structure
  positions in direct lattice
  velocities in cartesian coordinates
 exchange correlation table for  LEXCH =        8
   RHO(1)=    0.500       N(1)  =     2000
   RHO(2)=  100.500       N(2)  =     4000

 VTST: version 4.1, (05/19/21)

 CHAIN: initializing optimizer

 OPT: Using VASP Dynamics algorithm
 CHAIN: Read ICHAIN             0

 POSCAR: New structure
  positions in direct lattice
  velocities in cartesian coordinates

 ion  position               nearest neighbor table
   1  0.000  0.000  0.000- 126 1.83 130 1.83 146 1.83 150 1.83 226 1.83 230 1.83 246 1.83 250 1.83
                             6 2.11  21 2.11  26 2.11 101 2.11   2 2.11   5 2.11 102 2.98 105 2.98
   2  0.000  0.000  0.200- 127 1.83 147 1.83 227 1.83 247 1.83 226 1.83 146 1.83 246 1.83 126 1.83
                             3 2.11  27 2.11 102 2.11   1 2.11   7 2.11  22 2.11   8 2.98  28 2.98
   3  0.000  0.000  0.400- 127 1.83 128 1.83 147 1.83 148 1.83 227 1.83 228 1.83 247 1.83 248 1.83
                             2 2.11  28 2.11 103 2.11   4 2.11   8 2.11  23 2.11  27 2.98  22 2.98
   4  0.000  0.000  0.600- 128 1.83 129 1.83 148 1.83 149 1.83 228 1.83 229 1.83 248 1.83 249 1.83
                             5 2.11  29 2.11 104 2.11   3 2.11   9 2.11  24 2.11  10 2.98  30 2.98
   5  0.000  0.000  0.800- 129 1.83 149 1.83 229 1.83 249 1.83 130 1.83 230 1.83 150 1.83 250 1.83
                             4 2.11  30 2.11 105 2.11   1 2.11  10 2.11  25 2.11  29 2.98  24 2.98
   6  0.000  0.200  0.000- 131 1.83 135 1.83 231 1.83 235 1.83 226 1.83 230 1.83 126 1.83 130 1.83
                            11 2.11  31 2.11 106 2.11   7 2.11  10 2.11   1 2.11  12 2.98  15 2.98
   7  0.000  0.200  0.200- 132 1.83 232 1.83 127 1.83 227 1.83 231 1.83 131 1.83 226 1.83 126 1.83
                             8 2.11  12 2.11   2 2.11   6 2.11  32 2.11 107 2.11  13 2.98  11 2.98
   8  0.000  0.200  0.400- 132 1.83 133 1.83 232 1.83 233 1.83 227 1.83 228 1.83 127 1.83 128 1.83
                             7 2.11  13 2.11   9 2.11   3 2.11  33 2.11 108 2.11  12 2.98  14 2.98
   9  0.000  0.200  0.600- 133 1.83 134 1.83 233 1.83 234 1.83 228 1.83 229 1.83 128 1.83 129 1.83
                            10 2.11  14 2.11   4 2.11   8 2.11  34 2.11 109 2.11  15 2.98  13 2.98
  10  0.000  0.200  0.800- 134 1.83 234 1.83 135 1.83 229 1.83 129 1.83 235 1.83 130 1.83 230 1.83
                             9 2.11  15 2.11   5 2.11   6 2.11  35 2.11 110 2.11  14 2.98  11 2.98
  11  0.000  0.400  0.000- 131 1.83 135 1.83 136 1.83 140 1.83 231 1.83 235 1.83 236 1.83 240 1.83
                             6 2.11  36 2.11 111 2.11  12 2.11  15 2.11  16 2.11  10 2.98   7 2.98
  12  0.000  0.400  0.200- 132 1.83 137 1.83 232 1.83 237 1.83 231 1.83 136 1.83 236 1.83 131 1.83
                             7 2.11  13 2.11  11 2.11  17 2.11  37 2.11 112 2.11   8 2.98   6 2.98
  13  0.000  0.400  0.400- 132 1.83 133 1.83 137 1.83 138 1.83 232 1.83 233 1.83 237 1.83 238 1.83
                             8 2.11  12 2.11  14 2.11  18 2.11  38 2.11 113 2.11   7 2.98   9 2.98
  14  0.000  0.400  0.600- 133 1.83 134 1.83 138 1.83 139 1.83 233 1.83 234 1.83 238 1.83 239 1.83
                             9 2.11  15 2.11  13 2.11  19 2.11  39 2.11 114 2.11  10 2.98   8 2.98
  15  0.000  0.400  0.800- 134 1.83 139 1.83 234 1.83 239 1.83 135 1.83 235 1.83 140 1.83 240 1.83
                            10 2.11  14 2.11  11 2.11  20 2.11  40 2.11 115 2.11   9 2.98   6 2.98
  16  0.000  0.600  0.000- 136 1.83 140 1.83 141 1.83 145 1.83 236 1.83 240 1.83 241 1.83 245 1.83
                            21 2.11  41 2.11 116 2.11  17 2.11  20 2.11  11 2.11  22 2.98  25 2.98
  17  0.000  0.600  0.200- 137 1.83 142 1.83 237 1.83 242 1.83 236 1.83 141 1.83 241 1.83 136 1.83
                            18 2.11  22 2.11  12 2.11  16 2.11  42 2.11 117 2.11  23 2.98  21 2.98
  18  0.000  0.600  0.400- 137 1.83 138 1.83 142 1.83 143 1.83 237 1.83 238 1.83 242 1.83 243 1.83
                            17 2.11  23 2.11  19 2.11  13 2.11  43 2.11 118 2.11  22 2.98  24 2.98
  19  0.000  0.600  0.600- 138 1.83 139 1.83 143 1.83 144 1.83 238 1.83 239 1.83 243 1.83 244 1.83
                            20 2.11  24 2.11  14 2.11  18 2.11  44 2.11 119 2.11  25 2.98  23 2.98
  20  0.000  0.600  0.800- 139 1.83 144 1.83 239 1.83 244 1.83 140 1.83 240 1.83 145 1.83 245 1.83
                            19 2.11  25 2.11  15 2.11  16 2.11  45 2.11 120 2.11  24 2.98  21 2.98
  21  0.000  0.800  0.000- 141 1.83 145 1.83 241 1.83 245 1.83 146 1.83 150 1.83 246 1.83 250 1.83
                            16 2.11  46 2.11 121 2.11   1 2.11  22 2.11  25 2.11  17 2.98  20 2.98
  22  0.000  0.800  0.200- 142 1.83 242 1.83 147 1.83 241 1.83 141 1.83 247 1.83 246 1.83 146 1.83
                            17 2.11  23 2.11  21 2.11   2 2.11  47 2.11 122 2.11  18 2.98  16 2.98
  23  0.000  0.800  0.400- 142 1.83 143 1.83 242 1.83 243 1.83 147 1.83 148 1.83 247 1.83 248 1.83
                            18 2.11  22 2.11   3 2.11  24 2.11  48 2.11 123 2.11  17 2.98  19 2.98
  24  0.000  0.800  0.600- 143 1.83 144 1.83 243 1.83 244 1.83 148 1.83 149 1.83 248 1.83 249 1.83
                            19 2.11  25 2.11  23 2.11   4 2.11  49 2.11 124 2.11  20 2.98  18 2.98
  25  0.000  0.800  0.800- 144 1.83 244 1.83 149 1.83 145 1.83 245 1.83 249 1.83 150 1.83 250 1.83
                            20 2.11  24 2.11  21 2.11   5 2.11  50 2.11 125 2.11  19 2.98  16 2.98
  26  0.200  0.000  0.000- 151 1.83 155 1.83 171 1.83 175 1.83 126 1.83 130 1.83 146 1.83 150 1.83
                            51 2.11  46 2.11   1 2.11  27 2.11  30 2.11  31 2.11  52 2.98  55 2.98
  27  0.200  0.000  0.200- 152 1.83 172 1.83 171 1.83 151 1.83 127 1.83 147 1.83 146 1.83 126 1.83
                            28 2.11  52 2.11   2 2.11  32 2.11  47 2.11  26 2.11  53 2.98  72 2.98
  28  0.200  0.000  0.400- 152 1.83 153 1.83 172 1.83 173 1.83 127 1.83 128 1.83 147 1.83 148 1.83
                            27 2.11  53 2.11  29 2.11  33 2.11  48 2.11   3 2.11  52 2.98  73 2.98
  29  0.200  0.000  0.600- 153 1.83 154 1.83 173 1.83 174 1.83 128 1.83 129 1.83 148 1.83 149 1.83
                            30 2.11  54 2.11   4 2.11  34 2.11  49 2.11  28 2.11  55 2.98  74 2.98
  30  0.200  0.000  0.800- 154 1.83 174 1.83 155 1.83 175 1.83 129 1.83 149 1.83 130 1.83 150 1.83
                            29 2.11  55 2.11   5 2.11  35 2.11  50 2.11  26 2.11  54 2.98  75 2.98
  31  0.200  0.200  0.000- 156 1.83 160 1.83 151 1.83 155 1.83 131 1.83 135 1.83 126 1.83 130 1.83
                            36 2.11  56 2.11  32 2.11  35 2.11   6 2.11  26 2.11  61 2.98  60 2.98
  32  0.200  0.200  0.200- 157 1.83 152 1.83 156 1.83 132 1.83 151 1.83 131 1.83 127 1.83 126 1.83
                            57 2.11  33 2.11  37 2.11  31 2.11   7 2.11  27 2.11  62 2.98  38 2.98
  33  0.200  0.200  0.400- 157 1.83 158 1.83 152 1.83 153 1.83 132 1.83 133 1.83 127 1.83 128 1.83
                            58 2.11  32 2.11  38 2.11   8 2.11  34 2.11  28 2.11  63 2.98  57 2.98
  34  0.200  0.200  0.600- 158 1.83 159 1.83 153 1.83 154 1.83 133 1.83 134 1.83 128 1.83 129 1.83
                            59 2.11  35 2.11  39 2.11  33 2.11   9 2.11  29 2.11  64 2.98  40 2.98
  35  0.200  0.200  0.800- 159 1.83 154 1.83 134 1.83 160 1.83 155 1.83 129 1.83 135 1.83 130 1.83
                            60 2.11  34 2.11  40 2.11  31 2.11  10 2.11  30 2.11  65 2.98  59 2.98
  36  0.200  0.400  0.000- 156 1.83 160 1.83 161 1.83 165 1.83 131 1.83 135 1.83 136 1.83 140 1.83
                            31 2.11  61 2.11  37 2.11  40 2.11  41 2.11  11 2.11  56 2.98  65 2.98
  37  0.200  0.400  0.200- 157 1.83 162 1.83 161 1.83 156 1.83 132 1.83 137 1.83 136 1.83 131 1.83
                            62 2.11  32 2.11  38 2.11  36 2.11  12 2.11  42 2.11  63 2.98  57 2.98
  38  0.200  0.400  0.400- 157 1.83 158 1.83 162 1.83 163 1.83 132 1.83 133 1.83 137 1.83 138 1.83
                            63 2.11  33 2.11  37 2.11  13 2.11  39 2.11  43 2.11  32 2.98  58 2.98
  39  0.200  0.400  0.600- 158 1.83 159 1.83 163 1.83 164 1.83 133 1.83 134 1.83 138 1.83 139 1.83
                            64 2.11  34 2.11  40 2.11  38 2.11  14 2.11  44 2.11  65 2.98  59 2.98
  40  0.200  0.400  0.800- 159 1.83 164 1.83 160 1.83 165 1.83 134 1.83 139 1.83 135 1.83 140 1.83
[...]
   0.124E-02 0.124E-02 0.124E-02   -.796E-12 -.142E-12 -.568E-13   -.250E-04 -.250E-04 -.250E-04   -.126E-02 -.126E-02 -.126E-02
   -.467E-03 -.467E-03 0.410E-02   -.725E-12 -.178E-13 -.101E-09   0.123E-04 0.123E-04 -.369E-04   0.433E-03 0.433E-03 -.397E-02
   -.216E-02 -.216E-02 -.189E-10   -.789E-12 -.191E-12 0.100E-09   0.158E-04 0.158E-04 -.662E-23   0.205E-02 0.205E-02 -.962E-12
   -.467E-03 -.467E-03 -.410E-02   -.277E-12 -.139E-12 -.100E-09   0.123E-04 0.123E-04 0.369E-04   0.433E-03 0.433E-03 0.397E-02
   0.124E-02 0.124E-02 -.124E-02   -.568E-13 -.256E-12 0.101E-09   -.250E-04 -.250E-04 0.250E-04   -.126E-02 -.126E-02 0.126E-02
   -.467E-03 0.410E-02 -.467E-03   -.123E-11 -.101E-09 -.284E-13   0.123E-04 -.369E-04 0.123E-04   0.433E-03 -.397E-02 0.433E-03
   -.224E-02 0.194E-03 0.194E-03   -.801E-12 -.101E-09 -.101E-09   -.304E-04 0.239E-05 0.239E-05   0.228E-02 -.169E-03 -.169E-03
   -.282E-02 -.343E-02 -.187E-10   -.103E-11 -.101E-09 0.100E-09   -.424E-04 -.589E-05 -.620E-24   0.289E-02 0.335E-02 -.108E-11
   -.224E-02 0.194E-03 -.194E-03   -.856E-12 -.101E-09 -.100E-09   -.304E-04 0.239E-05 -.239E-05   0.228E-02 -.169E-03 0.169E-03
   -.467E-03 0.410E-02 0.467E-03   -.963E-12 -.101E-09 0.101E-09   0.123E-04 -.369E-04 -.123E-04   0.433E-03 -.397E-02 -.433E-03
   -.216E-02 -.196E-10 -.216E-02   -.796E-12 0.999E-10 -.302E-13   0.158E-04 0.579E-23 0.158E-04   0.205E-02 0.711E-13 0.205E-02
   -.282E-02 -.187E-10 -.343E-02   -.887E-12 0.100E-09 -.101E-09   -.424E-04 0.124E-23 -.589E-05   0.289E-02 -.971E-12 0.335E-02
   -.280E-02 -.194E-10 -.194E-10   -.102E-11 0.100E-09 0.100E-09   0.109E-04 -.124E-23 0.279E-23   0.282E-02 -.337E-12 -.546E-14
   -.282E-02 -.195E-10 0.343E-02   -.134E-11 0.100E-09 -.100E-09   -.424E-04 0.414E-24 0.589E-05   0.289E-02 0.102E-12 -.335E-02
   -.216E-02 -.193E-10 0.216E-02   -.123E-11 0.100E-09 0.101E-09   0.158E-04 0.620E-24 -.158E-04   0.205E-02 -.109E-12 -.205E-02
   -.467E-03 -.410E-02 -.467E-03   0.416E-12 -.100E-09 0.249E-13   0.123E-04 0.369E-04 0.123E-04   0.433E-03 0.397E-02 0.433E-03
   -.224E-02 -.194E-03 0.194E-03   -.215E-12 -.100E-09 -.101E-09   -.304E-04 -.239E-05 0.239E-05   0.228E-02 0.169E-03 -.169E-03
   -.282E-02 0.343E-02 -.201E-10   -.579E-12 -.100E-09 0.100E-09   -.424E-04 0.589E-05 0.827E-24   0.289E-02 -.335E-02 0.831E-12
   -.224E-02 -.194E-03 -.194E-03   -.405E-12 -.100E-09 -.100E-09   -.304E-04 -.239E-05 -.239E-05   0.228E-02 0.169E-03 0.169E-03
   -.467E-03 -.410E-02 0.467E-03   0.149E-12 -.100E-09 0.101E-09   0.123E-04 0.369E-04 -.123E-04   0.433E-03 0.397E-02 -.433E-03
   0.124E-02 -.124E-02 0.124E-02   0.767E-12 0.101E-09 0.284E-13   -.250E-04 0.250E-04 -.250E-04   -.126E-02 0.126E-02 -.126E-02
   -.467E-03 0.467E-03 0.410E-02   0.679E-12 0.101E-09 -.101E-09   0.123E-04 -.123E-04 -.369E-04   0.433E-03 -.433E-03 -.397E-02
   -.216E-02 0.216E-02 -.200E-10   0.552E-12 0.101E-09 0.100E-09   0.158E-04 -.158E-04 -.248E-23   0.205E-02 -.205E-02 0.624E-12
   -.467E-03 0.467E-03 -.410E-02   0.118E-11 0.101E-09 -.100E-09   0.123E-04 -.123E-04 0.369E-04   0.433E-03 -.433E-03 0.397E-02
   0.124E-02 -.124E-02 -.124E-02   0.597E-12 0.101E-09 0.101E-09   -.250E-04 0.250E-04 0.250E-04   -.126E-02 0.126E-02 0.126E-02
   0.410E-02 -.467E-03 -.467E-03   -.101E-09 -.156E-12 0.142E-13   -.369E-04 0.123E-04 0.123E-04   -.397E-02 0.433E-03 0.433E-03
   0.194E-03 -.224E-02 0.194E-03   -.101E-09 0.338E-13 -.101E-09   0.239E-05 -.304E-04 0.239E-05   -.169E-03 0.228E-02 -.169E-03
   -.343E-02 -.282E-02 -.190E-10   -.101E-09 -.959E-13 0.100E-09   -.589E-05 -.424E-04 0.207E-23   0.335E-02 0.289E-02 0.125E-12
   0.194E-03 -.224E-02 -.194E-03   -.101E-09 -.238E-12 -.100E-09   0.239E-05 -.304E-04 -.239E-05   -.169E-03 0.228E-02 0.169E-03
   0.410E-02 -.467E-03 0.467E-03   -.101E-09 -.888E-13 0.101E-09   -.369E-04 0.123E-04 -.123E-04   -.397E-02 0.433E-03 -.433E-03
   0.194E-03 0.194E-03 -.224E-02   -.102E-09 -.101E-09 0.675E-13   0.239E-05 0.239E-05 -.304E-04   -.169E-03 -.169E-03 0.228E-02
   -.221E-02 -.221E-02 -.221E-02   -.102E-09 -.101E-09 -.101E-09   -.294E-04 -.294E-04 -.294E-04   0.230E-02 0.230E-02 0.230E-02
   -.405E-02 -.405E-02 -.183E-10   -.102E-09 -.101E-09 0.100E-09   -.341E-05 -.341E-05 0.000E+00   0.406E-02 0.406E-02 0.997E-13
   -.221E-02 -.221E-02 0.221E-02   -.102E-09 -.101E-09 -.100E-09   -.294E-04 -.294E-04 0.294E-04   0.230E-02 0.230E-02 -.230E-02
   0.194E-03 0.194E-03 0.224E-02   -.102E-09 -.101E-09 0.101E-09   0.239E-05 0.239E-05 0.304E-04   -.169E-03 -.169E-03 -.228E-02
   -.343E-02 -.201E-10 -.282E-02   -.102E-09 0.100E-09 0.648E-13   -.589E-05 -.620E-24 -.424E-04   0.335E-02 -.501E-13 0.289E-02
   -.405E-02 -.193E-10 -.405E-02   -.102E-09 0.100E-09 -.101E-09   -.341E-05 0.476E-23 -.341E-05   0.406E-02 -.707E-12 0.406E-02
   -.454E-02 -.195E-10 -.187E-10   -.101E-09 0.100E-09 0.100E-09   0.592E-04 -.827E-24 0.538E-23   0.446E-02 -.169E-12 0.770E-12
   -.405E-02 -.204E-10 0.405E-02   -.101E-09 0.100E-09 -.100E-09   -.341E-05 -.248E-23 0.341E-05   0.406E-02 0.284E-12 -.406E-02
   -.343E-02 -.195E-10 0.282E-02   -.101E-09 0.100E-09 0.101E-09   -.589E-05 0.103E-23 0.424E-04   0.335E-02 0.128E-12 -.289E-02
   0.194E-03 -.194E-03 -.224E-02   -.102E-09 -.100E-09 0.639E-13   0.239E-05 -.239E-05 -.304E-04   -.169E-03 0.169E-03 0.228E-02
   -.221E-02 0.221E-02 -.221E-02   -.101E-09 -.101E-09 -.101E-09   -.294E-04 0.294E-04 -.294E-04   0.230E-02 -.230E-02 0.230E-02
   -.405E-02 0.405E-02 -.187E-10   -.101E-09 -.100E-09 0.100E-09   -.341E-05 0.341E-05 -.414E-24   0.406E-02 -.406E-02 0.812E-12
   -.221E-02 0.221E-02 0.221E-02   -.101E-09 -.100E-09 -.100E-09   -.294E-04 0.294E-04 0.294E-04   0.230E-02 -.230E-02 -.230E-02
   0.194E-03 -.194E-03 0.224E-02   -.101E-09 -.100E-09 0.101E-09   0.239E-05 -.239E-05 0.304E-04   -.169E-03 0.169E-03 -.228E-02
   0.410E-02 0.467E-03 -.467E-03   -.102E-09 0.101E-09 0.121E-12   -.369E-04 -.123E-04 0.123E-04   -.397E-02 -.433E-03 0.433E-03
   0.194E-03 0.224E-02 0.194E-03   -.102E-09 0.101E-09 -.101E-09   0.239E-05 0.304E-04 0.239E-05   -.169E-03 -.228E-02 -.169E-03
   -.343E-02 0.282E-02 -.188E-10   -.102E-09 0.101E-09 0.100E-09   -.589E-05 0.424E-04 0.207E-24   0.335E-02 -.289E-02 0.684E-12
   0.194E-03 0.224E-02 -.194E-03   -.102E-09 0.101E-09 -.100E-09   0.239E-05 0.304E-04 -.239E-05   -.169E-03 -.228E-02 0.169E-03
   0.410E-02 0.467E-03 0.467E-03   -.102E-09 0.101E-09 0.101E-09   -.369E-04 -.123E-04 -.123E-04   -.397E-02 -.433E-03 -.433E-03
   -.200E-10 -.216E-02 -.216E-02   0.999E-10 -.156E-12 -.693E-13   0.181E-23 0.158E-04 0.158E-04   0.819E-12 0.205E-02 0.205E-02
   -.198E-10 -.282E-02 -.343E-02   0.100E-09 0.163E-12 -.101E-09   -.757E-24 -.424E-04 -.589E-05   0.589E-12 0.289E-02 0.335E-02
   -.190E-10 -.280E-02 -.241E-10   0.997E-10 0.253E-13 0.999E-10   -.103E-23 0.109E-04 0.827E-24   -.284E-12 0.282E-02 -.438E-13
   -.192E-10 -.282E-02 0.343E-02   0.100E-09 -.139E-12 -.100E-09   -.216E-24 -.424E-04 0.589E-05   -.144E-14 0.289E-02 -.335E-02
   -.196E-10 -.216E-02 0.216E-02   0.999E-10 0.622E-13 0.101E-09   0.150E-23 0.158E-04 -.158E-04   0.458E-12 0.205E-02 -.205E-02
   -.192E-10 -.343E-02 -.282E-02   0.102E-09 -.101E-09 0.453E-13   0.260E-24 -.589E-05 -.424E-04   0.648E-13 0.335E-02 0.289E-02
   -.190E-10 -.405E-02 -.405E-02   0.101E-09 -.101E-09 -.101E-09   -.101E-23 -.341E-05 -.341E-05   -.245E-12 0.406E-02 0.406E-02
   -.190E-10 -.454E-02 -.226E-10   0.101E-09 -.101E-09 0.100E-09   0.230E-23 0.592E-04 -.227E-23   -.197E-12 0.446E-02 0.332E-13
   -.192E-10 -.405E-02 0.405E-02   0.101E-09 -.101E-09 -.100E-09   0.625E-24 -.341E-05 0.341E-05   0.755E-13 0.406E-02 -.406E-02
   -.196E-10 -.343E-02 0.282E-02   0.100E-09 -.101E-09 0.101E-09   0.183E-23 -.589E-05 0.424E-04   0.174E-12 0.335E-02 -.289E-02
[...]
   -.970E-11 0.102E-02 -.102E-02   0.583E-10 -.151E-13 0.574E-10   -.190E-23 -.102E-03 0.102E-03   -.675E-12 -.101E-02 0.101E-02
   -.972E-11 0.102E-02 0.102E-02   0.583E-10 0.790E-13 0.213E-13   -.751E-24 -.102E-03 -.102E-03   -.656E-12 -.101E-02 -.101E-02
   -.958E-11 -.236E-02 0.159E-02   0.581E-10 -.870E-13 -.574E-10   -.432E-23 0.246E-03 -.167E-03   -.896E-12 0.208E-02 -.132E-02
   -.915E-11 -.398E-02 -.113E-10   0.581E-10 0.178E-13 0.579E-10   0.393E-23 0.436E-03 -.124E-23   -.127E-11 0.349E-02 -.200E-12
   -.957E-11 -.130E-02 0.130E-02   0.587E-10 -.574E-10 -.579E-10   -.595E-24 0.146E-03 -.146E-03   -.462E-12 0.130E-02 -.130E-02
   -.993E-11 0.159E-02 0.236E-02   0.584E-10 -.575E-10 0.575E-10   0.338E-23 -.167E-03 -.246E-03   -.243E-12 -.132E-02 -.208E-02
   -.945E-11 0.159E-02 -.236E-02   0.587E-10 -.574E-10 0.195E-13   -.362E-24 -.167E-03 0.246E-03   -.112E-11 -.132E-02 0.208E-02
   -.934E-11 -.130E-02 -.130E-02   0.590E-10 -.575E-10 -.574E-10   0.228E-23 0.146E-03 0.146E-03   -.143E-11 0.130E-02 0.130E-02
   -.930E-11 -.239E-02 -.111E-10   0.589E-10 -.575E-10 0.579E-10   -.220E-23 0.263E-03 -.414E-24   -.108E-11 0.236E-02 -.637E-12
   -.101E-10 -.596E-11 0.239E-02   0.578E-10 0.581E-10 -.578E-10   -.278E-23 -.827E-24 -.263E-03   -.233E-12 0.897E-12 -.236E-02
   -.102E-10 -.560E-11 0.398E-02   0.580E-10 0.580E-10 0.575E-10   0.297E-23 0.703E-23 -.436E-03   -.102E-12 0.637E-12 -.349E-02
   -.960E-11 -.443E-11 -.398E-02   0.581E-10 0.579E-10 0.249E-13   -.854E-23 -.331E-23 0.436E-03   -.913E-12 -.105E-11 0.349E-02
   -.935E-11 -.458E-11 -.239E-02   0.582E-10 0.580E-10 -.573E-10   -.974E-24 0.207E-24 0.263E-03   -.119E-11 -.112E-11 0.236E-02
   -.943E-11 -.534E-11 -.111E-10   0.584E-10 0.580E-10 0.579E-10   0.540E-23 -.165E-23 -.165E-23   -.996E-12 -.164E-12 -.272E-12
   -.219E-08 -.218E-08 -.243E-08   -.114E-10 0.433E-11 0.919E-12   0.542E-19 0.217E-18 -.165E-23   -.399E-12 -.543E-12 -.199E-11

 POSITION                                       TOTAL-FORCE (eV/Angst)
      0.00000      0.00000      0.00000        -0.000052     -0.000052     -0.000052
      0.00000      0.00000      2.10830        -0.000022     -0.000022      0.000095
      0.00000      0.00000      4.21660        -0.000093     -0.000093      0.000000
      0.00000      0.00000      6.32490        -0.000022     -0.000022     -0.000095
      0.00000      0.00000      8.43320        -0.000052     -0.000052      0.000052
      0.00000      2.10830      0.00000        -0.000022      0.000095     -0.000022
      0.00000      2.10830      2.10830         0.000006      0.000027      0.000027
      0.00000      2.10830      4.21660         0.000034     -0.000086      0.000000
      0.00000      2.10830      6.32490         0.000006      0.000027     -0.000027
      0.00000      2.10830      8.43320        -0.000022      0.000095      0.000022
      0.00000      4.21660      0.00000        -0.000093      0.000000     -0.000093
      0.00000      4.21660      2.10830         0.000034      0.000000     -0.000086
      0.00000      4.21660      4.21660         0.000028      0.000000      0.000000
      0.00000      4.21660      6.32490         0.000034      0.000000      0.000086
      0.00000      4.21660      8.43320        -0.000093      0.000000      0.000093
      0.00000      6.32490      0.00000        -0.000022     -0.000095     -0.000022
      0.00000      6.32490      2.10830         0.000006     -0.000027      0.000027
      0.00000      6.32490      4.21660         0.000034      0.000086      0.000000
      0.00000      6.32490      6.32490         0.000006     -0.000027     -0.000027
      0.00000      6.32490      8.43320        -0.000022     -0.000095      0.000022
      0.00000      8.43320      0.00000        -0.000052      0.000052     -0.000052
      0.00000      8.43320      2.10830        -0.000022      0.000022      0.000095
      0.00000      8.43320      4.21660        -0.000093      0.000093      0.000000
      0.00000      8.43320      6.32490        -0.000022      0.000022     -0.000095
      0.00000      8.43320      8.43320        -0.000052      0.000052      0.000052
      2.10830      0.00000      0.00000         0.000095     -0.000022     -0.000022
      2.10830      0.00000      2.10830         0.000027      0.000006      0.000027
      2.10830      0.00000      4.21660        -0.000086      0.000034      0.000000
      2.10830      0.00000      6.32490         0.000027      0.000006     -0.000027
      2.10830      0.00000      8.43320         0.000095     -0.000022      0.000022
      2.10830      2.10830      0.00000         0.000027      0.000027      0.000006
      2.10830      2.10830      2.10830         0.000065      0.000065      0.000065
      2.10830      2.10830      4.21660         0.000012      0.000012      0.000000
      2.10830      2.10830      6.32490         0.000065      0.000065     -0.000065
      2.10830      2.10830      8.43320         0.000027      0.000027     -0.000006
      2.10830      4.21660      0.00000        -0.000086      0.000000      0.000034
      2.10830      4.21660      2.10830         0.000012      0.000000      0.000012
      2.10830      4.21660      4.21660        -0.000029      0.000000      0.000000
      2.10830      4.21660      6.32490         0.000012      0.000000     -0.000012
      2.10830      4.21660      8.43320        -0.000086      0.000000     -0.000034
      2.10830      6.32490      0.00000         0.000027     -0.000027      0.000006
      2.10830      6.32490      2.10830         0.000065     -0.000065      0.000065
      2.10830      6.32490      4.21660         0.000012     -0.000012      0.000000
      2.10830      6.32490      6.32490         0.000065     -0.000065     -0.000065
      2.10830      6.32490      8.43320         0.000027     -0.000027     -0.000006
      2.10830      8.43320      0.00000         0.000095      0.000022     -0.000022
      2.10830      8.43320      2.10830         0.000027     -0.000006      0.000027
      2.10830      8.43320      4.21660        -0.000086     -0.000034      0.000000
      2.10830      8.43320      6.32490         0.000027     -0.000006     -0.000027
      2.10830      8.43320      8.43320         0.000095      0.000022      0.000022
      4.21660      0.00000      0.00000        -0.000000     -0.000093     -0.000093
      4.21660      0.00000      2.10830        -0.000000      0.000034     -0.000086
      4.21660      0.00000      4.21660         0.000000      0.000028      0.000000
      4.21660      0.00000      6.32490         0.000000      0.000034      0.000086
      4.21660      0.00000      8.43320         0.000000     -0.000093      0.000093
      4.21660      2.10830      0.00000         0.000000     -0.000086      0.000034
      4.21660      2.10830      2.10830        -0.000000      0.000012      0.000012
      4.21660      2.10830      4.21660        -0.000000     -0.000029      0.000000
      4.21660      2.10830      6.32490         0.000000      0.000012     -0.000012
      4.21660      2.10830      8.43320        -0.000000     -0.000086     -0.000034
[...]
      9.48735      5.27075      1.05415        -0.000000     -0.000032     -0.000103
      9.48735      5.27075      3.16245        -0.000000     -0.000090      0.000090
      9.48735      5.27075      5.27075        -0.000000     -0.000090     -0.000090
      9.48735      5.27075      7.37905         0.000000     -0.000032      0.000103
      9.48735      5.27075      9.48735        -0.000000     -0.000047      0.000000
      9.48735      7.37905      1.05415         0.000000      0.000148     -0.000148
      9.48735      7.37905      3.16245        -0.000000      0.000103      0.000032
      9.48735      7.37905      5.27075        -0.000000      0.000103     -0.000032
      9.48735      7.37905      7.37905         0.000000      0.000148      0.000148
      9.48735      7.37905      9.48735        -0.000000      0.000234      0.000000
      9.48735      9.48735      1.05415        -0.000000      0.000000     -0.000234
      9.48735      9.48735      3.16245        -0.000000      0.000000      0.000047
      9.48735      9.48735      5.27075        -0.000000      0.000000     -0.000047
      9.48735      9.48735      7.37905        -0.000000      0.000000      0.000234
      9.48735      9.48735      9.48735         0.000000      0.000000      0.000000
    total drift:                               -0.000000     -0.000000     -0.000000

  FREE ENERGIE OF THE ION-ELECTRON SYSTEM (eV)
  free  energy   TOTEN  =      -509.51703724 eV

  energy  without entropy=     -509.27723043  energy(sigma->0) =     -509.39713383

 stress matrix after NEB project (eV)
   3223.78351     -0.00000      0.00000
      0.00000   3223.78351     -0.00000
     -0.00000      0.00000   3223.78351
  FORCES: max atom, RMS     0.000234    0.000116
  FORCE total and by dimension    0.001833    0.000234
  Stress total and by dimension 5583.756830 3223.783509